p cnf 799 6795
1 3 5 7 9 11 13 15 17 19 21 23 25 27 29 31 33 35 37 39 41 43 45 47 49 51 53 55 57 59 61 63 65 67 69 71 73 75 77 79 81 83 85 87 89 91 93 95 97 99 101 103 105 107 109 111 113 115 117 119 121 123 125 127 129 131 133 135 137 139 141 143 145 147 149 151 153 155 157 159 161 163 165 167 169 171 173 175 177 179 181 183 185 187 189 191 193 195 197 199 201 203 205 207 209 211 213 215 217 219 221 223 225 227 229 231 233 235 237 239 241 243 245 247 249 251 253 255 257 259 261 263 265 267 269 271 273 275 277 279 281 283 285 287 289 291 293 295 297 299 301 303 305 307 309 311 313 315 317 319 321 323 325 327 329 331 333 335 337 339 341 343 345 347 349 351 353 355 357 359 361 363 365 367 369 371 373 375 377 379 381 383 385 387 389 391 393 395 397 399 401 403 405 407 409 411 413 415 417 419 421 423 425 427 429 431 433 435 437 439 441 443 445 447 449 451 453 455 457 459 461 463 465 467 469 471 473 475 477 479 481 483 485 487 489 491 493 495 497 499 501 503 505 507 509 511 0
512 513 514 515 516 517 518 519 520 521 522 523 524 525 526 527 0
-512 -513 0
-512 -514 0
-512 -515 0
-512 -516 0
-512 -517 0
-512 -518 0
-512 -519 0
-512 -520 0
-512 -521 0
-512 -522 0
-512 -523 0
-512 -524 0
-512 -525 0
-512 -526 0
-512 -527 0
-513 -514 0
-513 -515 0
-513 -516 0
-513 -517 0
-513 -518 0
-513 -519 0
-513 -520 0
-513 -521 0
-513 -522 0
-513 -523 0
-513 -524 0
-513 -525 0
-513 -526 0
-513 -527 0
-514 -515 0
-514 -516 0
-514 -517 0
-514 -518 0
-514 -519 0
-514 -520 0
-514 -521 0
-514 -522 0
-514 -523 0
-514 -524 0
-514 -525 0
-514 -526 0
-514 -527 0
-515 -516 0
-515 -517 0
-515 -518 0
-515 -519 0
-515 -520 0
-515 -521 0
-515 -522 0
-515 -523 0
-515 -524 0
-515 -525 0
-515 -526 0
-515 -527 0
-516 -517 0
-516 -518 0
-516 -519 0
-516 -520 0
-516 -521 0
-516 -522 0
-516 -523 0
-516 -524 0
-516 -525 0
-516 -526 0
-516 -527 0
-517 -518 0
-517 -519 0
-517 -520 0
-517 -521 0
-517 -522 0
-517 -523 0
-517 -524 0
-517 -525 0
-517 -526 0
-517 -527 0
-518 -519 0
-518 -520 0
-518 -521 0
-518 -522 0
-518 -523 0
-518 -524 0
-518 -525 0
-518 -526 0
-518 -527 0
-519 -520 0
-519 -521 0
-519 -522 0
-519 -523 0
-519 -524 0
-519 -525 0
-519 -526 0
-519 -527 0
-520 -521 0
-520 -522 0
-520 -523 0
-520 -524 0
-520 -525 0
-520 -526 0
-520 -527 0
-521 -522 0
-521 -523 0
-521 -524 0
-521 -525 0
-521 -526 0
-521 -527 0
-522 -523 0
-522 -524 0
-522 -525 0
-522 -526 0
-522 -527 0
-523 -524 0
-523 -525 0
-523 -526 0
-523 -527 0
-524 -525 0
-524 -526 0
-524 -527 0
-525 -526 0
-525 -527 0
-526 -527 0
528 529 530 531 532 533 534 535 536 537 538 539 540 541 542 543 0
-528 -529 0
-528 -530 0
-528 -531 0
-528 -532 0
-528 -533 0
-528 -534 0
-528 -535 0
-528 -536 0
-528 -537 0
-528 -538 0
-528 -539 0
-528 -540 0
-528 -541 0
-528 -542 0
-528 -543 0
-529 -530 0
-529 -531 0
-529 -532 0
-529 -533 0
-529 -534 0
-529 -535 0
-529 -536 0
-529 -537 0
-529 -538 0
-529 -539 0
-529 -540 0
-529 -541 0
-529 -542 0
-529 -543 0
-530 -531 0
-530 -532 0
-530 -533 0
-530 -534 0
-530 -535 0
-530 -536 0
-530 -537 0
-530 -538 0
-530 -539 0
-530 -540 0
-530 -541 0
-530 -542 0
-530 -543 0
-531 -532 0
-531 -533 0
-531 -534 0
-531 -535 0
-531 -536 0
-531 -537 0
-531 -538 0
-531 -539 0
-531 -540 0
-531 -541 0
-531 -542 0
-531 -543 0
-532 -533 0
-532 -534 0
-532 -535 0
-532 -536 0
-532 -537 0
-532 -538 0
-532 -539 0
-532 -540 0
-532 -541 0
-532 -542 0
-532 -543 0
-533 -534 0
-533 -535 0
-533 -536 0
-533 -537 0
-533 -538 0
-533 -539 0
-533 -540 0
-533 -541 0
-533 -542 0
-533 -543 0
-534 -535 0
-534 -536 0
-534 -537 0
-534 -538 0
-534 -539 0
-534 -540 0
-534 -541 0
-534 -542 0
-534 -543 0
-535 -536 0
-535 -537 0
-535 -538 0
-535 -539 0
-535 -540 0
-535 -541 0
-535 -542 0
-535 -543 0
-536 -537 0
-536 -538 0
-536 -539 0
-536 -540 0
-536 -541 0
-536 -542 0
-536 -543 0
-537 -538 0
-537 -539 0
-537 -540 0
-537 -541 0
-537 -542 0
-537 -543 0
-538 -539 0
-538 -540 0
-538 -541 0
-538 -542 0
-538 -543 0
-539 -540 0
-539 -541 0
-539 -542 0
-539 -543 0
-540 -541 0
-540 -542 0
-540 -543 0
-541 -542 0
-541 -543 0
-542 -543 0
-1 512 0
-1 528 0
-3 512 0
-3 529 0
-5 512 0
-5 530 0
-7 512 0
-7 531 0
-9 512 0
-9 532 0
-11 512 0
-11 533 0
-13 512 0
-13 534 0
-15 512 0
-15 535 0
-17 512 0
-17 536 0
-19 512 0
-19 537 0
-21 512 0
-21 538 0
-23 512 0
-23 539 0
-25 512 0
-25 540 0
-27 512 0
-27 541 0
-29 512 0
-29 542 0
-31 512 0
-31 543 0
-33 513 0
-33 528 0
-35 513 0
-35 529 0
-37 513 0
-37 530 0
-39 513 0
-39 531 0
-41 513 0
-41 532 0
-43 513 0
-43 533 0
-45 513 0
-45 534 0
-47 513 0
-47 535 0
-49 513 0
-49 536 0
-51 513 0
-51 537 0
-53 513 0
-53 538 0
-55 513 0
-55 539 0
-57 513 0
-57 540 0
-59 513 0
-59 541 0
-61 513 0
-61 542 0
-63 513 0
-63 543 0
-65 514 0
-65 528 0
-67 514 0
-67 529 0
-69 514 0
-69 530 0
-71 514 0
-71 531 0
-73 514 0
-73 532 0
-75 514 0
-75 533 0
-77 514 0
-77 534 0
-79 514 0
-79 535 0
-81 514 0
-81 536 0
-83 514 0
-83 537 0
-85 514 0
-85 538 0
-87 514 0
-87 539 0
-89 514 0
-89 540 0
-91 514 0
-91 541 0
-93 514 0
-93 542 0
-95 514 0
-95 543 0
-97 515 0
-97 528 0
-99 515 0
-99 529 0
-101 515 0
-101 530 0
-103 515 0
-103 531 0
-105 515 0
-105 532 0
-107 515 0
-107 533 0
-109 515 0
-109 534 0
-111 515 0
-111 535 0
-113 515 0
-113 536 0
-115 515 0
-115 537 0
-117 515 0
-117 538 0
-119 515 0
-119 539 0
-121 515 0
-121 540 0
-123 515 0
-123 541 0
-125 515 0
-125 542 0
-127 515 0
-127 543 0
-129 516 0
-129 528 0
-131 516 0
-131 529 0
-133 516 0
-133 530 0
-135 516 0
-135 531 0
-137 516 0
-137 532 0
-139 516 0
-139 533 0
-141 516 0
-141 534 0
-143 516 0
-143 535 0
-145 516 0
-145 536 0
-147 516 0
-147 537 0
-149 516 0
-149 538 0
-151 516 0
-151 539 0
-153 516 0
-153 540 0
-155 516 0
-155 541 0
-157 516 0
-157 542 0
-159 516 0
-159 543 0
-161 517 0
-161 528 0
-163 517 0
-163 529 0
-165 517 0
-165 530 0
-167 517 0
-167 531 0
-169 517 0
-169 532 0
-171 517 0
-171 533 0
-173 517 0
-173 534 0
-175 517 0
-175 535 0
-177 517 0
-177 536 0
-179 517 0
-179 537 0
-181 517 0
-181 538 0
-183 517 0
-183 539 0
-185 517 0
-185 540 0
-187 517 0
-187 541 0
-189 517 0
-189 542 0
-191 517 0
-191 543 0
-193 518 0
-193 528 0
-195 518 0
-195 529 0
-197 518 0
-197 530 0
-199 518 0
-199 531 0
-201 518 0
-201 532 0
-203 518 0
-203 533 0
-205 518 0
-205 534 0
-207 518 0
-207 535 0
-209 518 0
-209 536 0
-211 518 0
-211 537 0
-213 518 0
-213 538 0
-215 518 0
-215 539 0
-217 518 0
-217 540 0
-219 518 0
-219 541 0
-221 518 0
-221 542 0
-223 518 0
-223 543 0
-225 519 0
-225 528 0
-227 519 0
-227 529 0
-229 519 0
-229 530 0
-231 519 0
-231 531 0
-233 519 0
-233 532 0
-235 519 0
-235 533 0
-237 519 0
-237 534 0
-239 519 0
-239 535 0
-241 519 0
-241 536 0
-243 519 0
-243 537 0
-245 519 0
-245 538 0
-247 519 0
-247 539 0
-249 519 0
-249 540 0
-251 519 0
-251 541 0
-253 519 0
-253 542 0
-255 519 0
-255 543 0
-257 520 0
-257 528 0
-259 520 0
-259 529 0
-261 520 0
-261 530 0
-263 520 0
-263 531 0
-265 520 0
-265 532 0
-267 520 0
-267 533 0
-269 520 0
-269 534 0
-271 520 0
-271 535 0
-273 520 0
-273 536 0
-275 520 0
-275 537 0
-277 520 0
-277 538 0
-279 520 0
-279 539 0
-281 520 0
-281 540 0
-283 520 0
-283 541 0
-285 520 0
-285 542 0
-287 520 0
-287 543 0
-289 521 0
-289 528 0
-291 521 0
-291 529 0
-293 521 0
-293 530 0
-295 521 0
-295 531 0
-297 521 0
-297 532 0
-299 521 0
-299 533 0
-301 521 0
-301 534 0
-303 521 0
-303 535 0
-305 521 0
-305 536 0
-307 521 0
-307 537 0
-309 521 0
-309 538 0
-311 521 0
-311 539 0
-313 521 0
-313 540 0
-315 521 0
-315 541 0
-317 521 0
-317 542 0
-319 521 0
-319 543 0
-321 522 0
-321 528 0
-323 522 0
-323 529 0
-325 522 0
-325 530 0
-327 522 0
-327 531 0
-329 522 0
-329 532 0
-331 522 0
-331 533 0
-333 522 0
-333 534 0
-335 522 0
-335 535 0
-337 522 0
-337 536 0
-339 522 0
-339 537 0
-341 522 0
-341 538 0
-343 522 0
-343 539 0
-345 522 0
-345 540 0
-347 522 0
-347 541 0
-349 522 0
-349 542 0
-351 522 0
-351 543 0
-353 523 0
-353 528 0
-355 523 0
-355 529 0
-357 523 0
-357 530 0
-359 523 0
-359 531 0
-361 523 0
-361 532 0
-363 523 0
-363 533 0
-365 523 0
-365 534 0
-367 523 0
-367 535 0
-369 523 0
-369 536 0
-371 523 0
-371 537 0
-373 523 0
-373 538 0
-375 523 0
-375 539 0
-377 523 0
-377 540 0
-379 523 0
-379 541 0
-381 523 0
-381 542 0
-383 523 0
-383 543 0
-385 524 0
-385 528 0
-387 524 0
-387 529 0
-389 524 0
-389 530 0
-391 524 0
-391 531 0
-393 524 0
-393 532 0
-395 524 0
-395 533 0
-397 524 0
-397 534 0
-399 524 0
-399 535 0
-401 524 0
-401 536 0
-403 524 0
-403 537 0
-405 524 0
-405 538 0
-407 524 0
-407 539 0
-409 524 0
-409 540 0
-411 524 0
-411 541 0
-413 524 0
-413 542 0
-415 524 0
-415 543 0
-417 525 0
-417 528 0
-419 525 0
-419 529 0
-421 525 0
-421 530 0
-423 525 0
-423 531 0
-425 525 0
-425 532 0
-427 525 0
-427 533 0
-429 525 0
-429 534 0
-431 525 0
-431 535 0
-433 525 0
-433 536 0
-435 525 0
-435 537 0
-437 525 0
-437 538 0
-439 525 0
-439 539 0
-441 525 0
-441 540 0
-443 525 0
-443 541 0
-445 525 0
-445 542 0
-447 525 0
-447 543 0
-449 526 0
-449 528 0
-451 526 0
-451 529 0
-453 526 0
-453 530 0
-455 526 0
-455 531 0
-457 526 0
-457 532 0
-459 526 0
-459 533 0
-461 526 0
-461 534 0
-463 526 0
-463 535 0
-465 526 0
-465 536 0
-467 526 0
-467 537 0
-469 526 0
-469 538 0
-471 526 0
-471 539 0
-473 526 0
-473 540 0
-475 526 0
-475 541 0
-477 526 0
-477 542 0
-479 526 0
-479 543 0
-481 527 0
-481 528 0
-483 527 0
-483 529 0
-485 527 0
-485 530 0
-487 527 0
-487 531 0
-489 527 0
-489 532 0
-491 527 0
-491 533 0
-493 527 0
-493 534 0
-495 527 0
-495 535 0
-497 527 0
-497 536 0
-499 527 0
-499 537 0
-501 527 0
-501 538 0
-503 527 0
-503 539 0
-505 527 0
-505 540 0
-507 527 0
-507 541 0
-509 527 0
-509 542 0
-511 527 0
-511 543 0
2 3 6 7 10 11 14 15 18 19 22 23 26 27 30 31 34 35 38 39 42 43 46 47 50 51 54 55 58 59 62 63 66 67 70 71 74 75 78 79 82 83 86 87 90 91 94 95 98 99 102 103 106 107 110 111 114 115 118 119 122 123 126 127 130 131 134 135 138 139 142 143 146 147 150 151 154 155 158 159 162 163 166 167 170 171 174 175 178 179 182 183 186 187 190 191 194 195 198 199 202 203 206 207 210 211 214 215 218 219 222 223 226 227 230 231 234 235 238 239 242 243 246 247 250 251 254 255 258 259 262 263 266 267 270 271 274 275 278 279 282 283 286 287 290 291 294 295 298 299 302 303 306 307 310 311 314 315 318 319 322 323 326 327 330 331 334 335 338 339 342 343 346 347 350 351 354 355 358 359 362 363 366 367 370 371 374 375 378 379 382 383 386 387 390 391 394 395 398 399 402 403 406 407 410 411 414 415 418 419 422 423 426 427 430 431 434 435 438 439 442 443 446 447 450 451 454 455 458 459 462 463 466 467 470 471 474 475 478 479 482 483 486 487 490 491 494 495 498 499 502 503 506 507 510 511 0
544 545 546 547 548 549 550 551 552 553 554 555 556 557 558 559 0
-544 -545 0
-544 -546 0
-544 -547 0
-544 -548 0
-544 -549 0
-544 -550 0
-544 -551 0
-544 -552 0
-544 -553 0
-544 -554 0
-544 -555 0
-544 -556 0
-544 -557 0
-544 -558 0
-544 -559 0
-545 -546 0
-545 -547 0
-545 -548 0
-545 -549 0
-545 -550 0
-545 -551 0
-545 -552 0
-545 -553 0
-545 -554 0
-545 -555 0
-545 -556 0
-545 -557 0
-545 -558 0
-545 -559 0
-546 -547 0
-546 -548 0
-546 -549 0
-546 -550 0
-546 -551 0
-546 -552 0
-546 -553 0
-546 -554 0
-546 -555 0
-546 -556 0
-546 -557 0
-546 -558 0
-546 -559 0
-547 -548 0
-547 -549 0
-547 -550 0
-547 -551 0
-547 -552 0
-547 -553 0
-547 -554 0
-547 -555 0
-547 -556 0
-547 -557 0
-547 -558 0
-547 -559 0
-548 -549 0
-548 -550 0
-548 -551 0
-548 -552 0
-548 -553 0
-548 -554 0
-548 -555 0
-548 -556 0
-548 -557 0
-548 -558 0
-548 -559 0
-549 -550 0
-549 -551 0
-549 -552 0
-549 -553 0
-549 -554 0
-549 -555 0
-549 -556 0
-549 -557 0
-549 -558 0
-549 -559 0
-550 -551 0
-550 -552 0
-550 -553 0
-550 -554 0
-550 -555 0
-550 -556 0
-550 -557 0
-550 -558 0
-550 -559 0
-551 -552 0
-551 -553 0
-551 -554 0
-551 -555 0
-551 -556 0
-551 -557 0
-551 -558 0
-551 -559 0
-552 -553 0
-552 -554 0
-552 -555 0
-552 -556 0
-552 -557 0
-552 -558 0
-552 -559 0
-553 -554 0
-553 -555 0
-553 -556 0
-553 -557 0
-553 -558 0
-553 -559 0
-554 -555 0
-554 -556 0
-554 -557 0
-554 -558 0
-554 -559 0
-555 -556 0
-555 -557 0
-555 -558 0
-555 -559 0
-556 -557 0
-556 -558 0
-556 -559 0
-557 -558 0
-557 -559 0
-558 -559 0
560 561 562 563 564 565 566 567 568 569 570 571 572 573 574 575 0
-560 -561 0
-560 -562 0
-560 -563 0
-560 -564 0
-560 -565 0
-560 -566 0
-560 -567 0
-560 -568 0
-560 -569 0
-560 -570 0
-560 -571 0
-560 -572 0
-560 -573 0
-560 -574 0
-560 -575 0
-561 -562 0
-561 -563 0
-561 -564 0
-561 -565 0
-561 -566 0
-561 -567 0
-561 -568 0
-561 -569 0
-561 -570 0
-561 -571 0
-561 -572 0
-561 -573 0
-561 -574 0
-561 -575 0
-562 -563 0
-562 -564 0
-562 -565 0
-562 -566 0
-562 -567 0
-562 -568 0
-562 -569 0
-562 -570 0
-562 -571 0
-562 -572 0
-562 -573 0
-562 -574 0
-562 -575 0
-563 -564 0
-563 -565 0
-563 -566 0
-563 -567 0
-563 -568 0
-563 -569 0
-563 -570 0
-563 -571 0
-563 -572 0
-563 -573 0
-563 -574 0
-563 -575 0
-564 -565 0
-564 -566 0
-564 -567 0
-564 -568 0
-564 -569 0
-564 -570 0
-564 -571 0
-564 -572 0
-564 -573 0
-564 -574 0
-564 -575 0
-565 -566 0
-565 -567 0
-565 -568 0
-565 -569 0
-565 -570 0
-565 -571 0
-565 -572 0
-565 -573 0
-565 -574 0
-565 -575 0
-566 -567 0
-566 -568 0
-566 -569 0
-566 -570 0
-566 -571 0
-566 -572 0
-566 -573 0
-566 -574 0
-566 -575 0
-567 -568 0
-567 -569 0
-567 -570 0
-567 -571 0
-567 -572 0
-567 -573 0
-567 -574 0
-567 -575 0
-568 -569 0
-568 -570 0
-568 -571 0
-568 -572 0
-568 -573 0
-568 -574 0
-568 -575 0
-569 -570 0
-569 -571 0
-569 -572 0
-569 -573 0
-569 -574 0
-569 -575 0
-570 -571 0
-570 -572 0
-570 -573 0
-570 -574 0
-570 -575 0
-571 -572 0
-571 -573 0
-571 -574 0
-571 -575 0
-572 -573 0
-572 -574 0
-572 -575 0
-573 -574 0
-573 -575 0
-574 -575 0
-2 544 0
-2 560 0
-3 544 0
-3 561 0
-6 544 0
-6 562 0
-7 544 0
-7 563 0
-10 544 0
-10 564 0
-11 544 0
-11 565 0
-14 544 0
-14 566 0
-15 544 0
-15 567 0
-18 544 0
-18 568 0
-19 544 0
-19 569 0
-22 544 0
-22 570 0
-23 544 0
-23 571 0
-26 544 0
-26 572 0
-27 544 0
-27 573 0
-30 544 0
-30 574 0
-31 544 0
-31 575 0
-34 545 0
-34 560 0
-35 545 0
-35 561 0
-38 545 0
-38 562 0
-39 545 0
-39 563 0
-42 545 0
-42 564 0
-43 545 0
-43 565 0
-46 545 0
-46 566 0
-47 545 0
-47 567 0
-50 545 0
-50 568 0
-51 545 0
-51 569 0
-54 545 0
-54 570 0
-55 545 0
-55 571 0
-58 545 0
-58 572 0
-59 545 0
-59 573 0
-62 545 0
-62 574 0
-63 545 0
-63 575 0
-66 546 0
-66 560 0
-67 546 0
-67 561 0
-70 546 0
-70 562 0
-71 546 0
-71 563 0
-74 546 0
-74 564 0
-75 546 0
-75 565 0
-78 546 0
-78 566 0
-79 546 0
-79 567 0
-82 546 0
-82 568 0
-83 546 0
-83 569 0
-86 546 0
-86 570 0
-87 546 0
-87 571 0
-90 546 0
-90 572 0
-91 546 0
-91 573 0
-94 546 0
-94 574 0
-95 546 0
-95 575 0
-98 547 0
-98 560 0
-99 547 0
-99 561 0
-102 547 0
-102 562 0
-103 547 0
-103 563 0
-106 547 0
-106 564 0
-107 547 0
-107 565 0
-110 547 0
-110 566 0
-111 547 0
-111 567 0
-114 547 0
-114 568 0
-115 547 0
-115 569 0
-118 547 0
-118 570 0
-119 547 0
-119 571 0
-122 547 0
-122 572 0
-123 547 0
-123 573 0
-126 547 0
-126 574 0
-127 547 0
-127 575 0
-130 548 0
-130 560 0
-131 548 0
-131 561 0
-134 548 0
-134 562 0
-135 548 0
-135 563 0
-138 548 0
-138 564 0
-139 548 0
-139 565 0
-142 548 0
-142 566 0
-143 548 0
-143 567 0
-146 548 0
-146 568 0
-147 548 0
-147 569 0
-150 548 0
-150 570 0
-151 548 0
-151 571 0
-154 548 0
-154 572 0
-155 548 0
-155 573 0
-158 548 0
-158 574 0
-159 548 0
-159 575 0
-162 549 0
-162 560 0
-163 549 0
-163 561 0
-166 549 0
-166 562 0
-167 549 0
-167 563 0
-170 549 0
-170 564 0
-171 549 0
-171 565 0
-174 549 0
-174 566 0
-175 549 0
-175 567 0
-178 549 0
-178 568 0
-179 549 0
-179 569 0
-182 549 0
-182 570 0
-183 549 0
-183 571 0
-186 549 0
-186 572 0
-187 549 0
-187 573 0
-190 549 0
-190 574 0
-191 549 0
-191 575 0
-194 550 0
-194 560 0
-195 550 0
-195 561 0
-198 550 0
-198 562 0
-199 550 0
-199 563 0
-202 550 0
-202 564 0
-203 550 0
-203 565 0
-206 550 0
-206 566 0
-207 550 0
-207 567 0
-210 550 0
-210 568 0
-211 550 0
-211 569 0
-214 550 0
-214 570 0
-215 550 0
-215 571 0
-218 550 0
-218 572 0
-219 550 0
-219 573 0
-222 550 0
-222 574 0
-223 550 0
-223 575 0
-226 551 0
-226 560 0
-227 551 0
-227 561 0
-230 551 0
-230 562 0
-231 551 0
-231 563 0
-234 551 0
-234 564 0
-235 551 0
-235 565 0
-238 551 0
-238 566 0
-239 551 0
-239 567 0
-242 551 0
-242 568 0
-243 551 0
-243 569 0
-246 551 0
-246 570 0
-247 551 0
-247 571 0
-250 551 0
-250 572 0
-251 551 0
-251 573 0
-254 551 0
-254 574 0
-255 551 0
-255 575 0
-258 552 0
-258 560 0
-259 552 0
-259 561 0
-262 552 0
-262 562 0
-263 552 0
-263 563 0
-266 552 0
-266 564 0
-267 552 0
-267 565 0
-270 552 0
-270 566 0
-271 552 0
-271 567 0
-274 552 0
-274 568 0
-275 552 0
-275 569 0
-278 552 0
-278 570 0
-279 552 0
-279 571 0
-282 552 0
-282 572 0
-283 552 0
-283 573 0
-286 552 0
-286 574 0
-287 552 0
-287 575 0
-290 553 0
-290 560 0
-291 553 0
-291 561 0
-294 553 0
-294 562 0
-295 553 0
-295 563 0
-298 553 0
-298 564 0
-299 553 0
-299 565 0
-302 553 0
-302 566 0
-303 553 0
-303 567 0
-306 553 0
-306 568 0
-307 553 0
-307 569 0
-310 553 0
-310 570 0
-311 553 0
-311 571 0
-314 553 0
-314 572 0
-315 553 0
-315 573 0
-318 553 0
-318 574 0
-319 553 0
-319 575 0
-322 554 0
-322 560 0
-323 554 0
-323 561 0
-326 554 0
-326 562 0
-327 554 0
-327 563 0
-330 554 0
-330 564 0
-331 554 0
-331 565 0
-334 554 0
-334 566 0
-335 554 0
-335 567 0
-338 554 0
-338 568 0
-339 554 0
-339 569 0
-342 554 0
-342 570 0
-343 554 0
-343 571 0
-346 554 0
-346 572 0
-347 554 0
-347 573 0
-350 554 0
-350 574 0
-351 554 0
-351 575 0
-354 555 0
-354 560 0
-355 555 0
-355 561 0
-358 555 0
-358 562 0
-359 555 0
-359 563 0
-362 555 0
-362 564 0
-363 555 0
-363 565 0
-366 555 0
-366 566 0
-367 555 0
-367 567 0
-370 555 0
-370 568 0
-371 555 0
-371 569 0
-374 555 0
-374 570 0
-375 555 0
-375 571 0
-378 555 0
-378 572 0
-379 555 0
-379 573 0
-382 555 0
-382 574 0
-383 555 0
-383 575 0
-386 556 0
-386 560 0
-387 556 0
-387 561 0
-390 556 0
-390 562 0
-391 556 0
-391 563 0
-394 556 0
-394 564 0
-395 556 0
-395 565 0
-398 556 0
-398 566 0
-399 556 0
-399 567 0
-402 556 0
-402 568 0
-403 556 0
-403 569 0
-406 556 0
-406 570 0
-407 556 0
-407 571 0
-410 556 0
-410 572 0
-411 556 0
-411 573 0
-414 556 0
-414 574 0
-415 556 0
-415 575 0
-418 557 0
-418 560 0
-419 557 0
-419 561 0
-422 557 0
-422 562 0
-423 557 0
-423 563 0
-426 557 0
-426 564 0
-427 557 0
-427 565 0
-430 557 0
-430 566 0
-431 557 0
-431 567 0
-434 557 0
-434 568 0
-435 557 0
-435 569 0
-438 557 0
-438 570 0
-439 557 0
-439 571 0
-442 557 0
-442 572 0
-443 557 0
-443 573 0
-446 557 0
-446 574 0
-447 557 0
-447 575 0
-450 558 0
-450 560 0
-451 558 0
-451 561 0
-454 558 0
-454 562 0
-455 558 0
-455 563 0
-458 558 0
-458 564 0
-459 558 0
-459 565 0
-462 558 0
-462 566 0
-463 558 0
-463 567 0
-466 558 0
-466 568 0
-467 558 0
-467 569 0
-470 558 0
-470 570 0
-471 558 0
-471 571 0
-474 558 0
-474 572 0
-475 558 0
-475 573 0
-478 558 0
-478 574 0
-479 558 0
-479 575 0
-482 559 0
-482 560 0
-483 559 0
-483 561 0
-486 559 0
-486 562 0
-487 559 0
-487 563 0
-490 559 0
-490 564 0
-491 559 0
-491 565 0
-494 559 0
-494 566 0
-495 559 0
-495 567 0
-498 559 0
-498 568 0
-499 559 0
-499 569 0
-502 559 0
-502 570 0
-503 559 0
-503 571 0
-506 559 0
-506 572 0
-507 559 0
-507 573 0
-510 559 0
-510 574 0
-511 559 0
-511 575 0
4 5 6 7 12 13 14 15 20 21 22 23 28 29 30 31 36 37 38 39 44 45 46 47 52 53 54 55 60 61 62 63 68 69 70 71 76 77 78 79 84 85 86 87 92 93 94 95 100 101 102 103 108 109 110 111 116 117 118 119 124 125 126 127 132 133 134 135 140 141 142 143 148 149 150 151 156 157 158 159 164 165 166 167 172 173 174 175 180 181 182 183 188 189 190 191 196 197 198 199 204 205 206 207 212 213 214 215 220 221 222 223 228 229 230 231 236 237 238 239 244 245 246 247 252 253 254 255 260 261 262 263 268 269 270 271 276 277 278 279 284 285 286 287 292 293 294 295 300 301 302 303 308 309 310 311 316 317 318 319 324 325 326 327 332 333 334 335 340 341 342 343 348 349 350 351 356 357 358 359 364 365 366 367 372 373 374 375 380 381 382 383 388 389 390 391 396 397 398 399 404 405 406 407 412 413 414 415 420 421 422 423 428 429 430 431 436 437 438 439 444 445 446 447 452 453 454 455 460 461 462 463 468 469 470 471 476 477 478 479 484 485 486 487 492 493 494 495 500 501 502 503 508 509 510 511 0
576 577 578 579 580 581 582 583 584 585 586 587 588 589 590 591 0
-576 -577 0
-576 -578 0
-576 -579 0
-576 -580 0
-576 -581 0
-576 -582 0
-576 -583 0
-576 -584 0
-576 -585 0
-576 -586 0
-576 -587 0
-576 -588 0
-576 -589 0
-576 -590 0
-576 -591 0
-577 -578 0
-577 -579 0
-577 -580 0
-577 -581 0
-577 -582 0
-577 -583 0
-577 -584 0
-577 -585 0
-577 -586 0
-577 -587 0
-577 -588 0
-577 -589 0
-577 -590 0
-577 -591 0
-578 -579 0
-578 -580 0
-578 -581 0
-578 -582 0
-578 -583 0
-578 -584 0
-578 -585 0
-578 -586 0
-578 -587 0
-578 -588 0
-578 -589 0
-578 -590 0
-578 -591 0
-579 -580 0
-579 -581 0
-579 -582 0
-579 -583 0
-579 -584 0
-579 -585 0
-579 -586 0
-579 -587 0
-579 -588 0
-579 -589 0
-579 -590 0
-579 -591 0
-580 -581 0
-580 -582 0
-580 -583 0
-580 -584 0
-580 -585 0
-580 -586 0
-580 -587 0
-580 -588 0
-580 -589 0
-580 -590 0
-580 -591 0
-581 -582 0
-581 -583 0
-581 -584 0
-581 -585 0
-581 -586 0
-581 -587 0
-581 -588 0
-581 -589 0
-581 -590 0
-581 -591 0
-582 -583 0
-582 -584 0
-582 -585 0
-582 -586 0
-582 -587 0
-582 -588 0
-582 -589 0
-582 -590 0
-582 -591 0
-583 -584 0
-583 -585 0
-583 -586 0
-583 -587 0
-583 -588 0
-583 -589 0
-583 -590 0
-583 -591 0
-584 -585 0
-584 -586 0
-584 -587 0
-584 -588 0
-584 -589 0
-584 -590 0
-584 -591 0
-585 -586 0
-585 -587 0
-585 -588 0
-585 -589 0
-585 -590 0
-585 -591 0
-586 -587 0
-586 -588 0
-586 -589 0
-586 -590 0
-586 -591 0
-587 -588 0
-587 -589 0
-587 -590 0
-587 -591 0
-588 -589 0
-588 -590 0
-588 -591 0
-589 -590 0
-589 -591 0
-590 -591 0
592 593 594 595 596 597 598 599 600 601 602 603 604 605 606 607 0
-592 -593 0
-592 -594 0
-592 -595 0
-592 -596 0
-592 -597 0
-592 -598 0
-592 -599 0
-592 -600 0
-592 -601 0
-592 -602 0
-592 -603 0
-592 -604 0
-592 -605 0
-592 -606 0
-592 -607 0
-593 -594 0
-593 -595 0
-593 -596 0
-593 -597 0
-593 -598 0
-593 -599 0
-593 -600 0
-593 -601 0
-593 -602 0
-593 -603 0
-593 -604 0
-593 -605 0
-593 -606 0
-593 -607 0
-594 -595 0
-594 -596 0
-594 -597 0
-594 -598 0
-594 -599 0
-594 -600 0
-594 -601 0
-594 -602 0
-594 -603 0
-594 -604 0
-594 -605 0
-594 -606 0
-594 -607 0
-595 -596 0
-595 -597 0
-595 -598 0
-595 -599 0
-595 -600 0
-595 -601 0
-595 -602 0
-595 -603 0
-595 -604 0
-595 -605 0
-595 -606 0
-595 -607 0
-596 -597 0
-596 -598 0
-596 -599 0
-596 -600 0
-596 -601 0
-596 -602 0
-596 -603 0
-596 -604 0
-596 -605 0
-596 -606 0
-596 -607 0
-597 -598 0
-597 -599 0
-597 -600 0
-597 -601 0
-597 -602 0
-597 -603 0
-597 -604 0
-597 -605 0
-597 -606 0
-597 -607 0
-598 -599 0
-598 -600 0
-598 -601 0
-598 -602 0
-598 -603 0
-598 -604 0
-598 -605 0
-598 -606 0
-598 -607 0
-599 -600 0
-599 -601 0
-599 -602 0
-599 -603 0
-599 -604 0
-599 -605 0
-599 -606 0
-599 -607 0
-600 -601 0
-600 -602 0
-600 -603 0
-600 -604 0
-600 -605 0
-600 -606 0
-600 -607 0
-601 -602 0
-601 -603 0
-601 -604 0
-601 -605 0
-601 -606 0
-601 -607 0
-602 -603 0
-602 -604 0
-602 -605 0
-602 -606 0
-602 -607 0
-603 -604 0
-603 -605 0
-603 -606 0
-603 -607 0
-604 -605 0
-604 -606 0
-604 -607 0
-605 -606 0
-605 -607 0
-606 -607 0
-4 576 0
-4 592 0
-5 576 0
-5 593 0
-6 576 0
-6 594 0
-7 576 0
-7 595 0
-12 576 0
-12 596 0
-13 576 0
-13 597 0
-14 576 0
-14 598 0
-15 576 0
-15 599 0
-20 576 0
-20 600 0
-21 576 0
-21 601 0
-22 576 0
-22 602 0
-23 576 0
-23 603 0
-28 576 0
-28 604 0
-29 576 0
-29 605 0
-30 576 0
-30 606 0
-31 576 0
-31 607 0
-36 577 0
-36 592 0
-37 577 0
-37 593 0
-38 577 0
-38 594 0
-39 577 0
-39 595 0
-44 577 0
-44 596 0
-45 577 0
-45 597 0
-46 577 0
-46 598 0
-47 577 0
-47 599 0
-52 577 0
-52 600 0
-53 577 0
-53 601 0
-54 577 0
-54 602 0
-55 577 0
-55 603 0
-60 577 0
-60 604 0
-61 577 0
-61 605 0
-62 577 0
-62 606 0
-63 577 0
-63 607 0
-68 578 0
-68 592 0
-69 578 0
-69 593 0
-70 578 0
-70 594 0
-71 578 0
-71 595 0
-76 578 0
-76 596 0
-77 578 0
-77 597 0
-78 578 0
-78 598 0
-79 578 0
-79 599 0
-84 578 0
-84 600 0
-85 578 0
-85 601 0
-86 578 0
-86 602 0
-87 578 0
-87 603 0
-92 578 0
-92 604 0
-93 578 0
-93 605 0
-94 578 0
-94 606 0
-95 578 0
-95 607 0
-100 579 0
-100 592 0
-101 579 0
-101 593 0
-102 579 0
-102 594 0
-103 579 0
-103 595 0
-108 579 0
-108 596 0
-109 579 0
-109 597 0
-110 579 0
-110 598 0
-111 579 0
-111 599 0
-116 579 0
-116 600 0
-117 579 0
-117 601 0
-118 579 0
-118 602 0
-119 579 0
-119 603 0
-124 579 0
-124 604 0
-125 579 0
-125 605 0
-126 579 0
-126 606 0
-127 579 0
-127 607 0
-132 580 0
-132 592 0
-133 580 0
-133 593 0
-134 580 0
-134 594 0
-135 580 0
-135 595 0
-140 580 0
-140 596 0
-141 580 0
-141 597 0
-142 580 0
-142 598 0
-143 580 0
-143 599 0
-148 580 0
-148 600 0
-149 580 0
-149 601 0
-150 580 0
-150 602 0
-151 580 0
-151 603 0
-156 580 0
-156 604 0
-157 580 0
-157 605 0
-158 580 0
-158 606 0
-159 580 0
-159 607 0
-164 581 0
-164 592 0
-165 581 0
-165 593 0
-166 581 0
-166 594 0
-167 581 0
-167 595 0
-172 581 0
-172 596 0
-173 581 0
-173 597 0
-174 581 0
-174 598 0
-175 581 0
-175 599 0
-180 581 0
-180 600 0
-181 581 0
-181 601 0
-182 581 0
-182 602 0
-183 581 0
-183 603 0
-188 581 0
-188 604 0
-189 581 0
-189 605 0
-190 581 0
-190 606 0
-191 581 0
-191 607 0
-196 582 0
-196 592 0
-197 582 0
-197 593 0
-198 582 0
-198 594 0
-199 582 0
-199 595 0
-204 582 0
-204 596 0
-205 582 0
-205 597 0
-206 582 0
-206 598 0
-207 582 0
-207 599 0
-212 582 0
-212 600 0
-213 582 0
-213 601 0
-214 582 0
-214 602 0
-215 582 0
-215 603 0
-220 582 0
-220 604 0
-221 582 0
-221 605 0
-222 582 0
-222 606 0
-223 582 0
-223 607 0
-228 583 0
-228 592 0
-229 583 0
-229 593 0
-230 583 0
-230 594 0
-231 583 0
-231 595 0
-236 583 0
-236 596 0
-237 583 0
-237 597 0
-238 583 0
-238 598 0
-239 583 0
-239 599 0
-244 583 0
-244 600 0
-245 583 0
-245 601 0
-246 583 0
-246 602 0
-247 583 0
-247 603 0
-252 583 0
-252 604 0
-253 583 0
-253 605 0
-254 583 0
-254 606 0
-255 583 0
-255 607 0
-260 584 0
-260 592 0
-261 584 0
-261 593 0
-262 584 0
-262 594 0
-263 584 0
-263 595 0
-268 584 0
-268 596 0
-269 584 0
-269 597 0
-270 584 0
-270 598 0
-271 584 0
-271 599 0
-276 584 0
-276 600 0
-277 584 0
-277 601 0
-278 584 0
-278 602 0
-279 584 0
-279 603 0
-284 584 0
-284 604 0
-285 584 0
-285 605 0
-286 584 0
-286 606 0
-287 584 0
-287 607 0
-292 585 0
-292 592 0
-293 585 0
-293 593 0
-294 585 0
-294 594 0
-295 585 0
-295 595 0
-300 585 0
-300 596 0
-301 585 0
-301 597 0
-302 585 0
-302 598 0
-303 585 0
-303 599 0
-308 585 0
-308 600 0
-309 585 0
-309 601 0
-310 585 0
-310 602 0
-311 585 0
-311 603 0
-316 585 0
-316 604 0
-317 585 0
-317 605 0
-318 585 0
-318 606 0
-319 585 0
-319 607 0
-324 586 0
-324 592 0
-325 586 0
-325 593 0
-326 586 0
-326 594 0
-327 586 0
-327 595 0
-332 586 0
-332 596 0
-333 586 0
-333 597 0
-334 586 0
-334 598 0
-335 586 0
-335 599 0
-340 586 0
-340 600 0
-341 586 0
-341 601 0
-342 586 0
-342 602 0
-343 586 0
-343 603 0
-348 586 0
-348 604 0
-349 586 0
-349 605 0
-350 586 0
-350 606 0
-351 586 0
-351 607 0
-356 587 0
-356 592 0
-357 587 0
-357 593 0
-358 587 0
-358 594 0
-359 587 0
-359 595 0
-364 587 0
-364 596 0
-365 587 0
-365 597 0
-366 587 0
-366 598 0
-367 587 0
-367 599 0
-372 587 0
-372 600 0
-373 587 0
-373 601 0
-374 587 0
-374 602 0
-375 587 0
-375 603 0
-380 587 0
-380 604 0
-381 587 0
-381 605 0
-382 587 0
-382 606 0
-383 587 0
-383 607 0
-388 588 0
-388 592 0
-389 588 0
-389 593 0
-390 588 0
-390 594 0
-391 588 0
-391 595 0
-396 588 0
-396 596 0
-397 588 0
-397 597 0
-398 588 0
-398 598 0
-399 588 0
-399 599 0
-404 588 0
-404 600 0
-405 588 0
-405 601 0
-406 588 0
-406 602 0
-407 588 0
-407 603 0
-412 588 0
-412 604 0
-413 588 0
-413 605 0
-414 588 0
-414 606 0
-415 588 0
-415 607 0
-420 589 0
-420 592 0
-421 589 0
-421 593 0
-422 589 0
-422 594 0
-423 589 0
-423 595 0
-428 589 0
-428 596 0
-429 589 0
-429 597 0
-430 589 0
-430 598 0
-431 589 0
-431 599 0
-436 589 0
-436 600 0
-437 589 0
-437 601 0
-438 589 0
-438 602 0
-439 589 0
-439 603 0
-444 589 0
-444 604 0
-445 589 0
-445 605 0
-446 589 0
-446 606 0
-447 589 0
-447 607 0
-452 590 0
-452 592 0
-453 590 0
-453 593 0
-454 590 0
-454 594 0
-455 590 0
-455 595 0
-460 590 0
-460 596 0
-461 590 0
-461 597 0
-462 590 0
-462 598 0
-463 590 0
-463 599 0
-468 590 0
-468 600 0
-469 590 0
-469 601 0
-470 590 0
-470 602 0
-471 590 0
-471 603 0
-476 590 0
-476 604 0
-477 590 0
-477 605 0
-478 590 0
-478 606 0
-479 590 0
-479 607 0
-484 591 0
-484 592 0
-485 591 0
-485 593 0
-486 591 0
-486 594 0
-487 591 0
-487 595 0
-492 591 0
-492 596 0
-493 591 0
-493 597 0
-494 591 0
-494 598 0
-495 591 0
-495 599 0
-500 591 0
-500 600 0
-501 591 0
-501 601 0
-502 591 0
-502 602 0
-503 591 0
-503 603 0
-508 591 0
-508 604 0
-509 591 0
-509 605 0
-510 591 0
-510 606 0
-511 591 0
-511 607 0
8 9 10 11 12 13 14 15 24 25 26 27 28 29 30 31 40 41 42 43 44 45 46 47 56 57 58 59 60 61 62 63 72 73 74 75 76 77 78 79 88 89 90 91 92 93 94 95 104 105 106 107 108 109 110 111 120 121 122 123 124 125 126 127 136 137 138 139 140 141 142 143 152 153 154 155 156 157 158 159 168 169 170 171 172 173 174 175 184 185 186 187 188 189 190 191 200 201 202 203 204 205 206 207 216 217 218 219 220 221 222 223 232 233 234 235 236 237 238 239 248 249 250 251 252 253 254 255 264 265 266 267 268 269 270 271 280 281 282 283 284 285 286 287 296 297 298 299 300 301 302 303 312 313 314 315 316 317 318 319 328 329 330 331 332 333 334 335 344 345 346 347 348 349 350 351 360 361 362 363 364 365 366 367 376 377 378 379 380 381 382 383 392 393 394 395 396 397 398 399 408 409 410 411 412 413 414 415 424 425 426 427 428 429 430 431 440 441 442 443 444 445 446 447 456 457 458 459 460 461 462 463 472 473 474 475 476 477 478 479 488 489 490 491 492 493 494 495 504 505 506 507 508 509 510 511 0
608 609 610 611 612 613 614 615 616 617 618 619 620 621 622 623 0
-608 -609 0
-608 -610 0
-608 -611 0
-608 -612 0
-608 -613 0
-608 -614 0
-608 -615 0
-608 -616 0
-608 -617 0
-608 -618 0
-608 -619 0
-608 -620 0
-608 -621 0
-608 -622 0
-608 -623 0
-609 -610 0
-609 -611 0
-609 -612 0
-609 -613 0
-609 -614 0
-609 -615 0
-609 -616 0
-609 -617 0
-609 -618 0
-609 -619 0
-609 -620 0
-609 -621 0
-609 -622 0
-609 -623 0
-610 -611 0
-610 -612 0
-610 -613 0
-610 -614 0
-610 -615 0
-610 -616 0
-610 -617 0
-610 -618 0
-610 -619 0
-610 -620 0
-610 -621 0
-610 -622 0
-610 -623 0
-611 -612 0
-611 -613 0
-611 -614 0
-611 -615 0
-611 -616 0
-611 -617 0
-611 -618 0
-611 -619 0
-611 -620 0
-611 -621 0
-611 -622 0
-611 -623 0
-612 -613 0
-612 -614 0
-612 -615 0
-612 -616 0
-612 -617 0
-612 -618 0
-612 -619 0
-612 -620 0
-612 -621 0
-612 -622 0
-612 -623 0
-613 -614 0
-613 -615 0
-613 -616 0
-613 -617 0
-613 -618 0
-613 -619 0
-613 -620 0
-613 -621 0
-613 -622 0
-613 -623 0
-614 -615 0
-614 -616 0
-614 -617 0
-614 -618 0
-614 -619 0
-614 -620 0
-614 -621 0
-614 -622 0
-614 -623 0
-615 -616 0
-615 -617 0
-615 -618 0
-615 -619 0
-615 -620 0
-615 -621 0
-615 -622 0
-615 -623 0
-616 -617 0
-616 -618 0
-616 -619 0
-616 -620 0
-616 -621 0
-616 -622 0
-616 -623 0
-617 -618 0
-617 -619 0
-617 -620 0
-617 -621 0
-617 -622 0
-617 -623 0
-618 -619 0
-618 -620 0
-618 -621 0
-618 -622 0
-618 -623 0
-619 -620 0
-619 -621 0
-619 -622 0
-619 -623 0
-620 -621 0
-620 -622 0
-620 -623 0
-621 -622 0
-621 -623 0
-622 -623 0
624 625 626 627 628 629 630 631 632 633 634 635 636 637 638 639 0
-624 -625 0
-624 -626 0
-624 -627 0
-624 -628 0
-624 -629 0
-624 -630 0
-624 -631 0
-624 -632 0
-624 -633 0
-624 -634 0
-624 -635 0
-624 -636 0
-624 -637 0
-624 -638 0
-624 -639 0
-625 -626 0
-625 -627 0
-625 -628 0
-625 -629 0
-625 -630 0
-625 -631 0
-625 -632 0
-625 -633 0
-625 -634 0
-625 -635 0
-625 -636 0
-625 -637 0
-625 -638 0
-625 -639 0
-626 -627 0
-626 -628 0
-626 -629 0
-626 -630 0
-626 -631 0
-626 -632 0
-626 -633 0
-626 -634 0
-626 -635 0
-626 -636 0
-626 -637 0
-626 -638 0
-626 -639 0
-627 -628 0
-627 -629 0
-627 -630 0
-627 -631 0
-627 -632 0
-627 -633 0
-627 -634 0
-627 -635 0
-627 -636 0
-627 -637 0
-627 -638 0
-627 -639 0
-628 -629 0
-628 -630 0
-628 -631 0
-628 -632 0
-628 -633 0
-628 -634 0
-628 -635 0
-628 -636 0
-628 -637 0
-628 -638 0
-628 -639 0
-629 -630 0
-629 -631 0
-629 -632 0
-629 -633 0
-629 -634 0
-629 -635 0
-629 -636 0
-629 -637 0
-629 -638 0
-629 -639 0
-630 -631 0
-630 -632 0
-630 -633 0
-630 -634 0
-630 -635 0
-630 -636 0
-630 -637 0
-630 -638 0
-630 -639 0
-631 -632 0
-631 -633 0
-631 -634 0
-631 -635 0
-631 -636 0
-631 -637 0
-631 -638 0
-631 -639 0
-632 -633 0
-632 -634 0
-632 -635 0
-632 -636 0
-632 -637 0
-632 -638 0
-632 -639 0
-633 -634 0
-633 -635 0
-633 -636 0
-633 -637 0
-633 -638 0
-633 -639 0
-634 -635 0
-634 -636 0
-634 -637 0
-634 -638 0
-634 -639 0
-635 -636 0
-635 -637 0
-635 -638 0
-635 -639 0
-636 -637 0
-636 -638 0
-636 -639 0
-637 -638 0
-637 -639 0
-638 -639 0
-8 608 0
-8 624 0
-9 608 0
-9 625 0
-10 608 0
-10 626 0
-11 608 0
-11 627 0
-12 608 0
-12 628 0
-13 608 0
-13 629 0
-14 608 0
-14 630 0
-15 608 0
-15 631 0
-24 608 0
-24 632 0
-25 608 0
-25 633 0
-26 608 0
-26 634 0
-27 608 0
-27 635 0
-28 608 0
-28 636 0
-29 608 0
-29 637 0
-30 608 0
-30 638 0
-31 608 0
-31 639 0
-40 609 0
-40 624 0
-41 609 0
-41 625 0
-42 609 0
-42 626 0
-43 609 0
-43 627 0
-44 609 0
-44 628 0
-45 609 0
-45 629 0
-46 609 0
-46 630 0
-47 609 0
-47 631 0
-56 609 0
-56 632 0
-57 609 0
-57 633 0
-58 609 0
-58 634 0
-59 609 0
-59 635 0
-60 609 0
-60 636 0
-61 609 0
-61 637 0
-62 609 0
-62 638 0
-63 609 0
-63 639 0
-72 610 0
-72 624 0
-73 610 0
-73 625 0
-74 610 0
-74 626 0
-75 610 0
-75 627 0
-76 610 0
-76 628 0
-77 610 0
-77 629 0
-78 610 0
-78 630 0
-79 610 0
-79 631 0
-88 610 0
-88 632 0
-89 610 0
-89 633 0
-90 610 0
-90 634 0
-91 610 0
-91 635 0
-92 610 0
-92 636 0
-93 610 0
-93 637 0
-94 610 0
-94 638 0
-95 610 0
-95 639 0
-104 611 0
-104 624 0
-105 611 0
-105 625 0
-106 611 0
-106 626 0
-107 611 0
-107 627 0
-108 611 0
-108 628 0
-109 611 0
-109 629 0
-110 611 0
-110 630 0
-111 611 0
-111 631 0
-120 611 0
-120 632 0
-121 611 0
-121 633 0
-122 611 0
-122 634 0
-123 611 0
-123 635 0
-124 611 0
-124 636 0
-125 611 0
-125 637 0
-126 611 0
-126 638 0
-127 611 0
-127 639 0
-136 612 0
-136 624 0
-137 612 0
-137 625 0
-138 612 0
-138 626 0
-139 612 0
-139 627 0
-140 612 0
-140 628 0
-141 612 0
-141 629 0
-142 612 0
-142 630 0
-143 612 0
-143 631 0
-152 612 0
-152 632 0
-153 612 0
-153 633 0
-154 612 0
-154 634 0
-155 612 0
-155 635 0
-156 612 0
-156 636 0
-157 612 0
-157 637 0
-158 612 0
-158 638 0
-159 612 0
-159 639 0
-168 613 0
-168 624 0
-169 613 0
-169 625 0
-170 613 0
-170 626 0
-171 613 0
-171 627 0
-172 613 0
-172 628 0
-173 613 0
-173 629 0
-174 613 0
-174 630 0
-175 613 0
-175 631 0
-184 613 0
-184 632 0
-185 613 0
-185 633 0
-186 613 0
-186 634 0
-187 613 0
-187 635 0
-188 613 0
-188 636 0
-189 613 0
-189 637 0
-190 613 0
-190 638 0
-191 613 0
-191 639 0
-200 614 0
-200 624 0
-201 614 0
-201 625 0
-202 614 0
-202 626 0
-203 614 0
-203 627 0
-204 614 0
-204 628 0
-205 614 0
-205 629 0
-206 614 0
-206 630 0
-207 614 0
-207 631 0
-216 614 0
-216 632 0
-217 614 0
-217 633 0
-218 614 0
-218 634 0
-219 614 0
-219 635 0
-220 614 0
-220 636 0
-221 614 0
-221 637 0
-222 614 0
-222 638 0
-223 614 0
-223 639 0
-232 615 0
-232 624 0
-233 615 0
-233 625 0
-234 615 0
-234 626 0
-235 615 0
-235 627 0
-236 615 0
-236 628 0
-237 615 0
-237 629 0
-238 615 0
-238 630 0
-239 615 0
-239 631 0
-248 615 0
-248 632 0
-249 615 0
-249 633 0
-250 615 0
-250 634 0
-251 615 0
-251 635 0
-252 615 0
-252 636 0
-253 615 0
-253 637 0
-254 615 0
-254 638 0
-255 615 0
-255 639 0
-264 616 0
-264 624 0
-265 616 0
-265 625 0
-266 616 0
-266 626 0
-267 616 0
-267 627 0
-268 616 0
-268 628 0
-269 616 0
-269 629 0
-270 616 0
-270 630 0
-271 616 0
-271 631 0
-280 616 0
-280 632 0
-281 616 0
-281 633 0
-282 616 0
-282 634 0
-283 616 0
-283 635 0
-284 616 0
-284 636 0
-285 616 0
-285 637 0
-286 616 0
-286 638 0
-287 616 0
-287 639 0
-296 617 0
-296 624 0
-297 617 0
-297 625 0
-298 617 0
-298 626 0
-299 617 0
-299 627 0
-300 617 0
-300 628 0
-301 617 0
-301 629 0
-302 617 0
-302 630 0
-303 617 0
-303 631 0
-312 617 0
-312 632 0
-313 617 0
-313 633 0
-314 617 0
-314 634 0
-315 617 0
-315 635 0
-316 617 0
-316 636 0
-317 617 0
-317 637 0
-318 617 0
-318 638 0
-319 617 0
-319 639 0
-328 618 0
-328 624 0
-329 618 0
-329 625 0
-330 618 0
-330 626 0
-331 618 0
-331 627 0
-332 618 0
-332 628 0
-333 618 0
-333 629 0
-334 618 0
-334 630 0
-335 618 0
-335 631 0
-344 618 0
-344 632 0
-345 618 0
-345 633 0
-346 618 0
-346 634 0
-347 618 0
-347 635 0
-348 618 0
-348 636 0
-349 618 0
-349 637 0
-350 618 0
-350 638 0
-351 618 0
-351 639 0
-360 619 0
-360 624 0
-361 619 0
-361 625 0
-362 619 0
-362 626 0
-363 619 0
-363 627 0
-364 619 0
-364 628 0
-365 619 0
-365 629 0
-366 619 0
-366 630 0
-367 619 0
-367 631 0
-376 619 0
-376 632 0
-377 619 0
-377 633 0
-378 619 0
-378 634 0
-379 619 0
-379 635 0
-380 619 0
-380 636 0
-381 619 0
-381 637 0
-382 619 0
-382 638 0
-383 619 0
-383 639 0
-392 620 0
-392 624 0
-393 620 0
-393 625 0
-394 620 0
-394 626 0
-395 620 0
-395 627 0
-396 620 0
-396 628 0
-397 620 0
-397 629 0
-398 620 0
-398 630 0
-399 620 0
-399 631 0
-408 620 0
-408 632 0
-409 620 0
-409 633 0
-410 620 0
-410 634 0
-411 620 0
-411 635 0
-412 620 0
-412 636 0
-413 620 0
-413 637 0
-414 620 0
-414 638 0
-415 620 0
-415 639 0
-424 621 0
-424 624 0
-425 621 0
-425 625 0
-426 621 0
-426 626 0
-427 621 0
-427 627 0
-428 621 0
-428 628 0
-429 621 0
-429 629 0
-430 621 0
-430 630 0
-431 621 0
-431 631 0
-440 621 0
-440 632 0
-441 621 0
-441 633 0
-442 621 0
-442 634 0
-443 621 0
-443 635 0
-444 621 0
-444 636 0
-445 621 0
-445 637 0
-446 621 0
-446 638 0
-447 621 0
-447 639 0
-456 622 0
-456 624 0
-457 622 0
-457 625 0
-458 622 0
-458 626 0
-459 622 0
-459 627 0
-460 622 0
-460 628 0
-461 622 0
-461 629 0
-462 622 0
-462 630 0
-463 622 0
-463 631 0
-472 622 0
-472 632 0
-473 622 0
-473 633 0
-474 622 0
-474 634 0
-475 622 0
-475 635 0
-476 622 0
-476 636 0
-477 622 0
-477 637 0
-478 622 0
-478 638 0
-479 622 0
-479 639 0
-488 623 0
-488 624 0
-489 623 0
-489 625 0
-490 623 0
-490 626 0
-491 623 0
-491 627 0
-492 623 0
-492 628 0
-493 623 0
-493 629 0
-494 623 0
-494 630 0
-495 623 0
-495 631 0
-504 623 0
-504 632 0
-505 623 0
-505 633 0
-506 623 0
-506 634 0
-507 623 0
-507 635 0
-508 623 0
-508 636 0
-509 623 0
-509 637 0
-510 623 0
-510 638 0
-511 623 0
-511 639 0
16 17 18 19 20 21 22 23 24 25 26 27 28 29 30 31 48 49 50 51 52 53 54 55 56 57 58 59 60 61 62 63 80 81 82 83 84 85 86 87 88 89 90 91 92 93 94 95 112 113 114 115 116 117 118 119 120 121 122 123 124 125 126 127 144 145 146 147 148 149 150 151 152 153 154 155 156 157 158 159 176 177 178 179 180 181 182 183 184 185 186 187 188 189 190 191 208 209 210 211 212 213 214 215 216 217 218 219 220 221 222 223 240 241 242 243 244 245 246 247 248 249 250 251 252 253 254 255 272 273 274 275 276 277 278 279 280 281 282 283 284 285 286 287 304 305 306 307 308 309 310 311 312 313 314 315 316 317 318 319 336 337 338 339 340 341 342 343 344 345 346 347 348 349 350 351 368 369 370 371 372 373 374 375 376 377 378 379 380 381 382 383 400 401 402 403 404 405 406 407 408 409 410 411 412 413 414 415 432 433 434 435 436 437 438 439 440 441 442 443 444 445 446 447 464 465 466 467 468 469 470 471 472 473 474 475 476 477 478 479 496 497 498 499 500 501 502 503 504 505 506 507 508 509 510 511 0
640 641 642 643 644 645 646 647 648 649 650 651 652 653 654 655 0
-640 -641 0
-640 -642 0
-640 -643 0
-640 -644 0
-640 -645 0
-640 -646 0
-640 -647 0
-640 -648 0
-640 -649 0
-640 -650 0
-640 -651 0
-640 -652 0
-640 -653 0
-640 -654 0
-640 -655 0
-641 -642 0
-641 -643 0
-641 -644 0
-641 -645 0
-641 -646 0
-641 -647 0
-641 -648 0
-641 -649 0
-641 -650 0
-641 -651 0
-641 -652 0
-641 -653 0
-641 -654 0
-641 -655 0
-642 -643 0
-642 -644 0
-642 -645 0
-642 -646 0
-642 -647 0
-642 -648 0
-642 -649 0
-642 -650 0
-642 -651 0
-642 -652 0
-642 -653 0
-642 -654 0
-642 -655 0
-643 -644 0
-643 -645 0
-643 -646 0
-643 -647 0
-643 -648 0
-643 -649 0
-643 -650 0
-643 -651 0
-643 -652 0
-643 -653 0
-643 -654 0
-643 -655 0
-644 -645 0
-644 -646 0
-644 -647 0
-644 -648 0
-644 -649 0
-644 -650 0
-644 -651 0
-644 -652 0
-644 -653 0
-644 -654 0
-644 -655 0
-645 -646 0
-645 -647 0
-645 -648 0
-645 -649 0
-645 -650 0
-645 -651 0
-645 -652 0
-645 -653 0
-645 -654 0
-645 -655 0
-646 -647 0
-646 -648 0
-646 -649 0
-646 -650 0
-646 -651 0
-646 -652 0
-646 -653 0
-646 -654 0
-646 -655 0
-647 -648 0
-647 -649 0
-647 -650 0
-647 -651 0
-647 -652 0
-647 -653 0
-647 -654 0
-647 -655 0
-648 -649 0
-648 -650 0
-648 -651 0
-648 -652 0
-648 -653 0
-648 -654 0
-648 -655 0
-649 -650 0
-649 -651 0
-649 -652 0
-649 -653 0
-649 -654 0
-649 -655 0
-650 -651 0
-650 -652 0
-650 -653 0
-650 -654 0
-650 -655 0
-651 -652 0
-651 -653 0
-651 -654 0
-651 -655 0
-652 -653 0
-652 -654 0
-652 -655 0
-653 -654 0
-653 -655 0
-654 -655 0
656 657 658 659 660 661 662 663 664 665 666 667 668 669 670 671 0
-656 -657 0
-656 -658 0
-656 -659 0
-656 -660 0
-656 -661 0
-656 -662 0
-656 -663 0
-656 -664 0
-656 -665 0
-656 -666 0
-656 -667 0
-656 -668 0
-656 -669 0
-656 -670 0
-656 -671 0
-657 -658 0
-657 -659 0
-657 -660 0
-657 -661 0
-657 -662 0
-657 -663 0
-657 -664 0
-657 -665 0
-657 -666 0
-657 -667 0
-657 -668 0
-657 -669 0
-657 -670 0
-657 -671 0
-658 -659 0
-658 -660 0
-658 -661 0
-658 -662 0
-658 -663 0
-658 -664 0
-658 -665 0
-658 -666 0
-658 -667 0
-658 -668 0
-658 -669 0
-658 -670 0
-658 -671 0
-659 -660 0
-659 -661 0
-659 -662 0
-659 -663 0
-659 -664 0
-659 -665 0
-659 -666 0
-659 -667 0
-659 -668 0
-659 -669 0
-659 -670 0
-659 -671 0
-660 -661 0
-660 -662 0
-660 -663 0
-660 -664 0
-660 -665 0
-660 -666 0
-660 -667 0
-660 -668 0
-660 -669 0
-660 -670 0
-660 -671 0
-661 -662 0
-661 -663 0
-661 -664 0
-661 -665 0
-661 -666 0
-661 -667 0
-661 -668 0
-661 -669 0
-661 -670 0
-661 -671 0
-662 -663 0
-662 -664 0
-662 -665 0
-662 -666 0
-662 -667 0
-662 -668 0
-662 -669 0
-662 -670 0
-662 -671 0
-663 -664 0
-663 -665 0
-663 -666 0
-663 -667 0
-663 -668 0
-663 -669 0
-663 -670 0
-663 -671 0
-664 -665 0
-664 -666 0
-664 -667 0
-664 -668 0
-664 -669 0
-664 -670 0
-664 -671 0
-665 -666 0
-665 -667 0
-665 -668 0
-665 -669 0
-665 -670 0
-665 -671 0
-666 -667 0
-666 -668 0
-666 -669 0
-666 -670 0
-666 -671 0
-667 -668 0
-667 -669 0
-667 -670 0
-667 -671 0
-668 -669 0
-668 -670 0
-668 -671 0
-669 -670 0
-669 -671 0
-670 -671 0
-16 640 0
-16 656 0
-17 640 0
-17 657 0
-18 640 0
-18 658 0
-19 640 0
-19 659 0
-20 640 0
-20 660 0
-21 640 0
-21 661 0
-22 640 0
-22 662 0
-23 640 0
-23 663 0
-24 640 0
-24 664 0
-25 640 0
-25 665 0
-26 640 0
-26 666 0
-27 640 0
-27 667 0
-28 640 0
-28 668 0
-29 640 0
-29 669 0
-30 640 0
-30 670 0
-31 640 0
-31 671 0
-48 641 0
-48 656 0
-49 641 0
-49 657 0
-50 641 0
-50 658 0
-51 641 0
-51 659 0
-52 641 0
-52 660 0
-53 641 0
-53 661 0
-54 641 0
-54 662 0
-55 641 0
-55 663 0
-56 641 0
-56 664 0
-57 641 0
-57 665 0
-58 641 0
-58 666 0
-59 641 0
-59 667 0
-60 641 0
-60 668 0
-61 641 0
-61 669 0
-62 641 0
-62 670 0
-63 641 0
-63 671 0
-80 642 0
-80 656 0
-81 642 0
-81 657 0
-82 642 0
-82 658 0
-83 642 0
-83 659 0
-84 642 0
-84 660 0
-85 642 0
-85 661 0
-86 642 0
-86 662 0
-87 642 0
-87 663 0
-88 642 0
-88 664 0
-89 642 0
-89 665 0
-90 642 0
-90 666 0
-91 642 0
-91 667 0
-92 642 0
-92 668 0
-93 642 0
-93 669 0
-94 642 0
-94 670 0
-95 642 0
-95 671 0
-112 643 0
-112 656 0
-113 643 0
-113 657 0
-114 643 0
-114 658 0
-115 643 0
-115 659 0
-116 643 0
-116 660 0
-117 643 0
-117 661 0
-118 643 0
-118 662 0
-119 643 0
-119 663 0
-120 643 0
-120 664 0
-121 643 0
-121 665 0
-122 643 0
-122 666 0
-123 643 0
-123 667 0
-124 643 0
-124 668 0
-125 643 0
-125 669 0
-126 643 0
-126 670 0
-127 643 0
-127 671 0
-144 644 0
-144 656 0
-145 644 0
-145 657 0
-146 644 0
-146 658 0
-147 644 0
-147 659 0
-148 644 0
-148 660 0
-149 644 0
-149 661 0
-150 644 0
-150 662 0
-151 644 0
-151 663 0
-152 644 0
-152 664 0
-153 644 0
-153 665 0
-154 644 0
-154 666 0
-155 644 0
-155 667 0
-156 644 0
-156 668 0
-157 644 0
-157 669 0
-158 644 0
-158 670 0
-159 644 0
-159 671 0
-176 645 0
-176 656 0
-177 645 0
-177 657 0
-178 645 0
-178 658 0
-179 645 0
-179 659 0
-180 645 0
-180 660 0
-181 645 0
-181 661 0
-182 645 0
-182 662 0
-183 645 0
-183 663 0
-184 645 0
-184 664 0
-185 645 0
-185 665 0
-186 645 0
-186 666 0
-187 645 0
-187 667 0
-188 645 0
-188 668 0
-189 645 0
-189 669 0
-190 645 0
-190 670 0
-191 645 0
-191 671 0
-208 646 0
-208 656 0
-209 646 0
-209 657 0
-210 646 0
-210 658 0
-211 646 0
-211 659 0
-212 646 0
-212 660 0
-213 646 0
-213 661 0
-214 646 0
-214 662 0
-215 646 0
-215 663 0
-216 646 0
-216 664 0
-217 646 0
-217 665 0
-218 646 0
-218 666 0
-219 646 0
-219 667 0
-220 646 0
-220 668 0
-221 646 0
-221 669 0
-222 646 0
-222 670 0
-223 646 0
-223 671 0
-240 647 0
-240 656 0
-241 647 0
-241 657 0
-242 647 0
-242 658 0
-243 647 0
-243 659 0
-244 647 0
-244 660 0
-245 647 0
-245 661 0
-246 647 0
-246 662 0
-247 647 0
-247 663 0
-248 647 0
-248 664 0
-249 647 0
-249 665 0
-250 647 0
-250 666 0
-251 647 0
-251 667 0
-252 647 0
-252 668 0
-253 647 0
-253 669 0
-254 647 0
-254 670 0
-255 647 0
-255 671 0
-272 648 0
-272 656 0
-273 648 0
-273 657 0
-274 648 0
-274 658 0
-275 648 0
-275 659 0
-276 648 0
-276 660 0
-277 648 0
-277 661 0
-278 648 0
-278 662 0
-279 648 0
-279 663 0
-280 648 0
-280 664 0
-281 648 0
-281 665 0
-282 648 0
-282 666 0
-283 648 0
-283 667 0
-284 648 0
-284 668 0
-285 648 0
-285 669 0
-286 648 0
-286 670 0
-287 648 0
-287 671 0
-304 649 0
-304 656 0
-305 649 0
-305 657 0
-306 649 0
-306 658 0
-307 649 0
-307 659 0
-308 649 0
-308 660 0
-309 649 0
-309 661 0
-310 649 0
-310 662 0
-311 649 0
-311 663 0
-312 649 0
-312 664 0
-313 649 0
-313 665 0
-314 649 0
-314 666 0
-315 649 0
-315 667 0
-316 649 0
-316 668 0
-317 649 0
-317 669 0
-318 649 0
-318 670 0
-319 649 0
-319 671 0
-336 650 0
-336 656 0
-337 650 0
-337 657 0
-338 650 0
-338 658 0
-339 650 0
-339 659 0
-340 650 0
-340 660 0
-341 650 0
-341 661 0
-342 650 0
-342 662 0
-343 650 0
-343 663 0
-344 650 0
-344 664 0
-345 650 0
-345 665 0
-346 650 0
-346 666 0
-347 650 0
-347 667 0
-348 650 0
-348 668 0
-349 650 0
-349 669 0
-350 650 0
-350 670 0
-351 650 0
-351 671 0
-368 651 0
-368 656 0
-369 651 0
-369 657 0
-370 651 0
-370 658 0
-371 651 0
-371 659 0
-372 651 0
-372 660 0
-373 651 0
-373 661 0
-374 651 0
-374 662 0
-375 651 0
-375 663 0
-376 651 0
-376 664 0
-377 651 0
-377 665 0
-378 651 0
-378 666 0
-379 651 0
-379 667 0
-380 651 0
-380 668 0
-381 651 0
-381 669 0
-382 651 0
-382 670 0
-383 651 0
-383 671 0
-400 652 0
-400 656 0
-401 652 0
-401 657 0
-402 652 0
-402 658 0
-403 652 0
-403 659 0
-404 652 0
-404 660 0
-405 652 0
-405 661 0
-406 652 0
-406 662 0
-407 652 0
-407 663 0
-408 652 0
-408 664 0
-409 652 0
-409 665 0
-410 652 0
-410 666 0
-411 652 0
-411 667 0
-412 652 0
-412 668 0
-413 652 0
-413 669 0
-414 652 0
-414 670 0
-415 652 0
-415 671 0
-432 653 0
-432 656 0
-433 653 0
-433 657 0
-434 653 0
-434 658 0
-435 653 0
-435 659 0
-436 653 0
-436 660 0
-437 653 0
-437 661 0
-438 653 0
-438 662 0
-439 653 0
-439 663 0
-440 653 0
-440 664 0
-441 653 0
-441 665 0
-442 653 0
-442 666 0
-443 653 0
-443 667 0
-444 653 0
-444 668 0
-445 653 0
-445 669 0
-446 653 0
-446 670 0
-447 653 0
-447 671 0
-464 654 0
-464 656 0
-465 654 0
-465 657 0
-466 654 0
-466 658 0
-467 654 0
-467 659 0
-468 654 0
-468 660 0
-469 654 0
-469 661 0
-470 654 0
-470 662 0
-471 654 0
-471 663 0
-472 654 0
-472 664 0
-473 654 0
-473 665 0
-474 654 0
-474 666 0
-475 654 0
-475 667 0
-476 654 0
-476 668 0
-477 654 0
-477 669 0
-478 654 0
-478 670 0
-479 654 0
-479 671 0
-496 655 0
-496 656 0
-497 655 0
-497 657 0
-498 655 0
-498 658 0
-499 655 0
-499 659 0
-500 655 0
-500 660 0
-501 655 0
-501 661 0
-502 655 0
-502 662 0
-503 655 0
-503 663 0
-504 655 0
-504 664 0
-505 655 0
-505 665 0
-506 655 0
-506 666 0
-507 655 0
-507 667 0
-508 655 0
-508 668 0
-509 655 0
-509 669 0
-510 655 0
-510 670 0
-511 655 0
-511 671 0
32 33 34 35 36 37 38 39 40 41 42 43 44 45 46 47 48 49 50 51 52 53 54 55 56 57 58 59 60 61 62 63 96 97 98 99 100 101 102 103 104 105 106 107 108 109 110 111 112 113 114 115 116 117 118 119 120 121 122 123 124 125 126 127 160 161 162 163 164 165 166 167 168 169 170 171 172 173 174 175 176 177 178 179 180 181 182 183 184 185 186 187 188 189 190 191 224 225 226 227 228 229 230 231 232 233 234 235 236 237 238 239 240 241 242 243 244 245 246 247 248 249 250 251 252 253 254 255 288 289 290 291 292 293 294 295 296 297 298 299 300 301 302 303 304 305 306 307 308 309 310 311 312 313 314 315 316 317 318 319 352 353 354 355 356 357 358 359 360 361 362 363 364 365 366 367 368 369 370 371 372 373 374 375 376 377 378 379 380 381 382 383 416 417 418 419 420 421 422 423 424 425 426 427 428 429 430 431 432 433 434 435 436 437 438 439 440 441 442 443 444 445 446 447 480 481 482 483 484 485 486 487 488 489 490 491 492 493 494 495 496 497 498 499 500 501 502 503 504 505 506 507 508 509 510 511 0
672 673 674 675 676 677 678 679 680 681 682 683 684 685 686 687 0
-672 -673 0
-672 -674 0
-672 -675 0
-672 -676 0
-672 -677 0
-672 -678 0
-672 -679 0
-672 -680 0
-672 -681 0
-672 -682 0
-672 -683 0
-672 -684 0
-672 -685 0
-672 -686 0
-672 -687 0
-673 -674 0
-673 -675 0
-673 -676 0
-673 -677 0
-673 -678 0
-673 -679 0
-673 -680 0
-673 -681 0
-673 -682 0
-673 -683 0
-673 -684 0
-673 -685 0
-673 -686 0
-673 -687 0
-674 -675 0
-674 -676 0
-674 -677 0
-674 -678 0
-674 -679 0
-674 -680 0
-674 -681 0
-674 -682 0
-674 -683 0
-674 -684 0
-674 -685 0
-674 -686 0
-674 -687 0
-675 -676 0
-675 -677 0
-675 -678 0
-675 -679 0
-675 -680 0
-675 -681 0
-675 -682 0
-675 -683 0
-675 -684 0
-675 -685 0
-675 -686 0
-675 -687 0
-676 -677 0
-676 -678 0
-676 -679 0
-676 -680 0
-676 -681 0
-676 -682 0
-676 -683 0
-676 -684 0
-676 -685 0
-676 -686 0
-676 -687 0
-677 -678 0
-677 -679 0
-677 -680 0
-677 -681 0
-677 -682 0
-677 -683 0
-677 -684 0
-677 -685 0
-677 -686 0
-677 -687 0
-678 -679 0
-678 -680 0
-678 -681 0
-678 -682 0
-678 -683 0
-678 -684 0
-678 -685 0
-678 -686 0
-678 -687 0
-679 -680 0
-679 -681 0
-679 -682 0
-679 -683 0
-679 -684 0
-679 -685 0
-679 -686 0
-679 -687 0
-680 -681 0
-680 -682 0
-680 -683 0
-680 -684 0
-680 -685 0
-680 -686 0
-680 -687 0
-681 -682 0
-681 -683 0
-681 -684 0
-681 -685 0
-681 -686 0
-681 -687 0
-682 -683 0
-682 -684 0
-682 -685 0
-682 -686 0
-682 -687 0
-683 -684 0
-683 -685 0
-683 -686 0
-683 -687 0
-684 -685 0
-684 -686 0
-684 -687 0
-685 -686 0
-685 -687 0
-686 -687 0
688 689 690 691 692 693 694 695 696 697 698 699 700 701 702 703 0
-688 -689 0
-688 -690 0
-688 -691 0
-688 -692 0
-688 -693 0
-688 -694 0
-688 -695 0
-688 -696 0
-688 -697 0
-688 -698 0
-688 -699 0
-688 -700 0
-688 -701 0
-688 -702 0
-688 -703 0
-689 -690 0
-689 -691 0
-689 -692 0
-689 -693 0
-689 -694 0
-689 -695 0
-689 -696 0
-689 -697 0
-689 -698 0
-689 -699 0
-689 -700 0
-689 -701 0
-689 -702 0
-689 -703 0
-690 -691 0
-690 -692 0
-690 -693 0
-690 -694 0
-690 -695 0
-690 -696 0
-690 -697 0
-690 -698 0
-690 -699 0
-690 -700 0
-690 -701 0
-690 -702 0
-690 -703 0
-691 -692 0
-691 -693 0
-691 -694 0
-691 -695 0
-691 -696 0
-691 -697 0
-691 -698 0
-691 -699 0
-691 -700 0
-691 -701 0
-691 -702 0
-691 -703 0
-692 -693 0
-692 -694 0
-692 -695 0
-692 -696 0
-692 -697 0
-692 -698 0
-692 -699 0
-692 -700 0
-692 -701 0
-692 -702 0
-692 -703 0
-693 -694 0
-693 -695 0
-693 -696 0
-693 -697 0
-693 -698 0
-693 -699 0
-693 -700 0
-693 -701 0
-693 -702 0
-693 -703 0
-694 -695 0
-694 -696 0
-694 -697 0
-694 -698 0
-694 -699 0
-694 -700 0
-694 -701 0
-694 -702 0
-694 -703 0
-695 -696 0
-695 -697 0
-695 -698 0
-695 -699 0
-695 -700 0
-695 -701 0
-695 -702 0
-695 -703 0
-696 -697 0
-696 -698 0
-696 -699 0
-696 -700 0
-696 -701 0
-696 -702 0
-696 -703 0
-697 -698 0
-697 -699 0
-697 -700 0
-697 -701 0
-697 -702 0
-697 -703 0
-698 -699 0
-698 -700 0
-698 -701 0
-698 -702 0
-698 -703 0
-699 -700 0
-699 -701 0
-699 -702 0
-699 -703 0
-700 -701 0
-700 -702 0
-700 -703 0
-701 -702 0
-701 -703 0
-702 -703 0
-32 672 0
-32 688 0
-33 672 0
-33 689 0
-34 672 0
-34 690 0
-35 672 0
-35 691 0
-36 672 0
-36 692 0
-37 672 0
-37 693 0
-38 672 0
-38 694 0
-39 672 0
-39 695 0
-40 672 0
-40 696 0
-41 672 0
-41 697 0
-42 672 0
-42 698 0
-43 672 0
-43 699 0
-44 672 0
-44 700 0
-45 672 0
-45 701 0
-46 672 0
-46 702 0
-47 672 0
-47 703 0
-48 673 0
-48 688 0
-49 673 0
-49 689 0
-50 673 0
-50 690 0
-51 673 0
-51 691 0
-52 673 0
-52 692 0
-53 673 0
-53 693 0
-54 673 0
-54 694 0
-55 673 0
-55 695 0
-56 673 0
-56 696 0
-57 673 0
-57 697 0
-58 673 0
-58 698 0
-59 673 0
-59 699 0
-60 673 0
-60 700 0
-61 673 0
-61 701 0
-62 673 0
-62 702 0
-63 673 0
-63 703 0
-96 674 0
-96 688 0
-97 674 0
-97 689 0
-98 674 0
-98 690 0
-99 674 0
-99 691 0
-100 674 0
-100 692 0
-101 674 0
-101 693 0
-102 674 0
-102 694 0
-103 674 0
-103 695 0
-104 674 0
-104 696 0
-105 674 0
-105 697 0
-106 674 0
-106 698 0
-107 674 0
-107 699 0
-108 674 0
-108 700 0
-109 674 0
-109 701 0
-110 674 0
-110 702 0
-111 674 0
-111 703 0
-112 675 0
-112 688 0
-113 675 0
-113 689 0
-114 675 0
-114 690 0
-115 675 0
-115 691 0
-116 675 0
-116 692 0
-117 675 0
-117 693 0
-118 675 0
-118 694 0
-119 675 0
-119 695 0
-120 675 0
-120 696 0
-121 675 0
-121 697 0
-122 675 0
-122 698 0
-123 675 0
-123 699 0
-124 675 0
-124 700 0
-125 675 0
-125 701 0
-126 675 0
-126 702 0
-127 675 0
-127 703 0
-160 676 0
-160 688 0
-161 676 0
-161 689 0
-162 676 0
-162 690 0
-163 676 0
-163 691 0
-164 676 0
-164 692 0
-165 676 0
-165 693 0
-166 676 0
-166 694 0
-167 676 0
-167 695 0
-168 676 0
-168 696 0
-169 676 0
-169 697 0
-170 676 0
-170 698 0
-171 676 0
-171 699 0
-172 676 0
-172 700 0
-173 676 0
-173 701 0
-174 676 0
-174 702 0
-175 676 0
-175 703 0
-176 677 0
-176 688 0
-177 677 0
-177 689 0
-178 677 0
-178 690 0
-179 677 0
-179 691 0
-180 677 0
-180 692 0
-181 677 0
-181 693 0
-182 677 0
-182 694 0
-183 677 0
-183 695 0
-184 677 0
-184 696 0
-185 677 0
-185 697 0
-186 677 0
-186 698 0
-187 677 0
-187 699 0
-188 677 0
-188 700 0
-189 677 0
-189 701 0
-190 677 0
-190 702 0
-191 677 0
-191 703 0
-224 678 0
-224 688 0
-225 678 0
-225 689 0
-226 678 0
-226 690 0
-227 678 0
-227 691 0
-228 678 0
-228 692 0
-229 678 0
-229 693 0
-230 678 0
-230 694 0
-231 678 0
-231 695 0
-232 678 0
-232 696 0
-233 678 0
-233 697 0
-234 678 0
-234 698 0
-235 678 0
-235 699 0
-236 678 0
-236 700 0
-237 678 0
-237 701 0
-238 678 0
-238 702 0
-239 678 0
-239 703 0
-240 679 0
-240 688 0
-241 679 0
-241 689 0
-242 679 0
-242 690 0
-243 679 0
-243 691 0
-244 679 0
-244 692 0
-245 679 0
-245 693 0
-246 679 0
-246 694 0
-247 679 0
-247 695 0
-248 679 0
-248 696 0
-249 679 0
-249 697 0
-250 679 0
-250 698 0
-251 679 0
-251 699 0
-252 679 0
-252 700 0
-253 679 0
-253 701 0
-254 679 0
-254 702 0
-255 679 0
-255 703 0
-288 680 0
-288 688 0
-289 680 0
-289 689 0
-290 680 0
-290 690 0
-291 680 0
-291 691 0
-292 680 0
-292 692 0
-293 680 0
-293 693 0
-294 680 0
-294 694 0
-295 680 0
-295 695 0
-296 680 0
-296 696 0
-297 680 0
-297 697 0
-298 680 0
-298 698 0
-299 680 0
-299 699 0
-300 680 0
-300 700 0
-301 680 0
-301 701 0
-302 680 0
-302 702 0
-303 680 0
-303 703 0
-304 681 0
-304 688 0
-305 681 0
-305 689 0
-306 681 0
-306 690 0
-307 681 0
-307 691 0
-308 681 0
-308 692 0
-309 681 0
-309 693 0
-310 681 0
-310 694 0
-311 681 0
-311 695 0
-312 681 0
-312 696 0
-313 681 0
-313 697 0
-314 681 0
-314 698 0
-315 681 0
-315 699 0
-316 681 0
-316 700 0
-317 681 0
-317 701 0
-318 681 0
-318 702 0
-319 681 0
-319 703 0
-352 682 0
-352 688 0
-353 682 0
-353 689 0
-354 682 0
-354 690 0
-355 682 0
-355 691 0
-356 682 0
-356 692 0
-357 682 0
-357 693 0
-358 682 0
-358 694 0
-359 682 0
-359 695 0
-360 682 0
-360 696 0
-361 682 0
-361 697 0
-362 682 0
-362 698 0
-363 682 0
-363 699 0
-364 682 0
-364 700 0
-365 682 0
-365 701 0
-366 682 0
-366 702 0
-367 682 0
-367 703 0
-368 683 0
-368 688 0
-369 683 0
-369 689 0
-370 683 0
-370 690 0
-371 683 0
-371 691 0
-372 683 0
-372 692 0
-373 683 0
-373 693 0
-374 683 0
-374 694 0
-375 683 0
-375 695 0
-376 683 0
-376 696 0
-377 683 0
-377 697 0
-378 683 0
-378 698 0
-379 683 0
-379 699 0
-380 683 0
-380 700 0
-381 683 0
-381 701 0
-382 683 0
-382 702 0
-383 683 0
-383 703 0
-416 684 0
-416 688 0
-417 684 0
-417 689 0
-418 684 0
-418 690 0
-419 684 0
-419 691 0
-420 684 0
-420 692 0
-421 684 0
-421 693 0
-422 684 0
-422 694 0
-423 684 0
-423 695 0
-424 684 0
-424 696 0
-425 684 0
-425 697 0
-426 684 0
-426 698 0
-427 684 0
-427 699 0
-428 684 0
-428 700 0
-429 684 0
-429 701 0
-430 684 0
-430 702 0
-431 684 0
-431 703 0
-432 685 0
-432 688 0
-433 685 0
-433 689 0
-434 685 0
-434 690 0
-435 685 0
-435 691 0
-436 685 0
-436 692 0
-437 685 0
-437 693 0
-438 685 0
-438 694 0
-439 685 0
-439 695 0
-440 685 0
-440 696 0
-441 685 0
-441 697 0
-442 685 0
-442 698 0
-443 685 0
-443 699 0
-444 685 0
-444 700 0
-445 685 0
-445 701 0
-446 685 0
-446 702 0
-447 685 0
-447 703 0
-480 686 0
-480 688 0
-481 686 0
-481 689 0
-482 686 0
-482 690 0
-483 686 0
-483 691 0
-484 686 0
-484 692 0
-485 686 0
-485 693 0
-486 686 0
-486 694 0
-487 686 0
-487 695 0
-488 686 0
-488 696 0
-489 686 0
-489 697 0
-490 686 0
-490 698 0
-491 686 0
-491 699 0
-492 686 0
-492 700 0
-493 686 0
-493 701 0
-494 686 0
-494 702 0
-495 686 0
-495 703 0
-496 687 0
-496 688 0
-497 687 0
-497 689 0
-498 687 0
-498 690 0
-499 687 0
-499 691 0
-500 687 0
-500 692 0
-501 687 0
-501 693 0
-502 687 0
-502 694 0
-503 687 0
-503 695 0
-504 687 0
-504 696 0
-505 687 0
-505 697 0
-506 687 0
-506 698 0
-507 687 0
-507 699 0
-508 687 0
-508 700 0
-509 687 0
-509 701 0
-510 687 0
-510 702 0
-511 687 0
-511 703 0
64 65 66 67 68 69 70 71 72 73 74 75 76 77 78 79 80 81 82 83 84 85 86 87 88 89 90 91 92 93 94 95 96 97 98 99 100 101 102 103 104 105 106 107 108 109 110 111 112 113 114 115 116 117 118 119 120 121 122 123 124 125 126 127 192 193 194 195 196 197 198 199 200 201 202 203 204 205 206 207 208 209 210 211 212 213 214 215 216 217 218 219 220 221 222 223 224 225 226 227 228 229 230 231 232 233 234 235 236 237 238 239 240 241 242 243 244 245 246 247 248 249 250 251 252 253 254 255 320 321 322 323 324 325 326 327 328 329 330 331 332 333 334 335 336 337 338 339 340 341 342 343 344 345 346 347 348 349 350 351 352 353 354 355 356 357 358 359 360 361 362 363 364 365 366 367 368 369 370 371 372 373 374 375 376 377 378 379 380 381 382 383 448 449 450 451 452 453 454 455 456 457 458 459 460 461 462 463 464 465 466 467 468 469 470 471 472 473 474 475 476 477 478 479 480 481 482 483 484 485 486 487 488 489 490 491 492 493 494 495 496 497 498 499 500 501 502 503 504 505 506 507 508 509 510 511 0
704 705 706 707 708 709 710 711 712 713 714 715 716 717 718 719 0
-704 -705 0
-704 -706 0
-704 -707 0
-704 -708 0
-704 -709 0
-704 -710 0
-704 -711 0
-704 -712 0
-704 -713 0
-704 -714 0
-704 -715 0
-704 -716 0
-704 -717 0
-704 -718 0
-704 -719 0
-705 -706 0
-705 -707 0
-705 -708 0
-705 -709 0
-705 -710 0
-705 -711 0
-705 -712 0
-705 -713 0
-705 -714 0
-705 -715 0
-705 -716 0
-705 -717 0
-705 -718 0
-705 -719 0
-706 -707 0
-706 -708 0
-706 -709 0
-706 -710 0
-706 -711 0
-706 -712 0
-706 -713 0
-706 -714 0
-706 -715 0
-706 -716 0
-706 -717 0
-706 -718 0
-706 -719 0
-707 -708 0
-707 -709 0
-707 -710 0
-707 -711 0
-707 -712 0
-707 -713 0
-707 -714 0
-707 -715 0
-707 -716 0
-707 -717 0
-707 -718 0
-707 -719 0
-708 -709 0
-708 -710 0
-708 -711 0
-708 -712 0
-708 -713 0
-708 -714 0
-708 -715 0
-708 -716 0
-708 -717 0
-708 -718 0
-708 -719 0
-709 -710 0
-709 -711 0
-709 -712 0
-709 -713 0
-709 -714 0
-709 -715 0
-709 -716 0
-709 -717 0
-709 -718 0
-709 -719 0
-710 -711 0
-710 -712 0
-710 -713 0
-710 -714 0
-710 -715 0
-710 -716 0
-710 -717 0
-710 -718 0
-710 -719 0
-711 -712 0
-711 -713 0
-711 -714 0
-711 -715 0
-711 -716 0
-711 -717 0
-711 -718 0
-711 -719 0
-712 -713 0
-712 -714 0
-712 -715 0
-712 -716 0
-712 -717 0
-712 -718 0
-712 -719 0
-713 -714 0
-713 -715 0
-713 -716 0
-713 -717 0
-713 -718 0
-713 -719 0
-714 -715 0
-714 -716 0
-714 -717 0
-714 -718 0
-714 -719 0
-715 -716 0
-715 -717 0
-715 -718 0
-715 -719 0
-716 -717 0
-716 -718 0
-716 -719 0
-717 -718 0
-717 -719 0
-718 -719 0
720 721 722 723 724 725 726 727 728 729 730 731 732 733 734 735 0
-720 -721 0
-720 -722 0
-720 -723 0
-720 -724 0
-720 -725 0
-720 -726 0
-720 -727 0
-720 -728 0
-720 -729 0
-720 -730 0
-720 -731 0
-720 -732 0
-720 -733 0
-720 -734 0
-720 -735 0
-721 -722 0
-721 -723 0
-721 -724 0
-721 -725 0
-721 -726 0
-721 -727 0
-721 -728 0
-721 -729 0
-721 -730 0
-721 -731 0
-721 -732 0
-721 -733 0
-721 -734 0
-721 -735 0
-722 -723 0
-722 -724 0
-722 -725 0
-722 -726 0
-722 -727 0
-722 -728 0
-722 -729 0
-722 -730 0
-722 -731 0
-722 -732 0
-722 -733 0
-722 -734 0
-722 -735 0
-723 -724 0
-723 -725 0
-723 -726 0
-723 -727 0
-723 -728 0
-723 -729 0
-723 -730 0
-723 -731 0
-723 -732 0
-723 -733 0
-723 -734 0
-723 -735 0
-724 -725 0
-724 -726 0
-724 -727 0
-724 -728 0
-724 -729 0
-724 -730 0
-724 -731 0
-724 -732 0
-724 -733 0
-724 -734 0
-724 -735 0
-725 -726 0
-725 -727 0
-725 -728 0
-725 -729 0
-725 -730 0
-725 -731 0
-725 -732 0
-725 -733 0
-725 -734 0
-725 -735 0
-726 -727 0
-726 -728 0
-726 -729 0
-726 -730 0
-726 -731 0
-726 -732 0
-726 -733 0
-726 -734 0
-726 -735 0
-727 -728 0
-727 -729 0
-727 -730 0
-727 -731 0
-727 -732 0
-727 -733 0
-727 -734 0
-727 -735 0
-728 -729 0
-728 -730 0
-728 -731 0
-728 -732 0
-728 -733 0
-728 -734 0
-728 -735 0
-729 -730 0
-729 -731 0
-729 -732 0
-729 -733 0
-729 -734 0
-729 -735 0
-730 -731 0
-730 -732 0
-730 -733 0
-730 -734 0
-730 -735 0
-731 -732 0
-731 -733 0
-731 -734 0
-731 -735 0
-732 -733 0
-732 -734 0
-732 -735 0
-733 -734 0
-733 -735 0
-734 -735 0
-64 704 0
-64 720 0
-65 704 0
-65 721 0
-66 704 0
-66 722 0
-67 704 0
-67 723 0
-68 704 0
-68 724 0
-69 704 0
-69 725 0
-70 704 0
-70 726 0
-71 704 0
-71 727 0
-72 704 0
-72 728 0
-73 704 0
-73 729 0
-74 704 0
-74 730 0
-75 704 0
-75 731 0
-76 704 0
-76 732 0
-77 704 0
-77 733 0
-78 704 0
-78 734 0
-79 704 0
-79 735 0
-80 705 0
-80 720 0
-81 705 0
-81 721 0
-82 705 0
-82 722 0
-83 705 0
-83 723 0
-84 705 0
-84 724 0
-85 705 0
-85 725 0
-86 705 0
-86 726 0
-87 705 0
-87 727 0
-88 705 0
-88 728 0
-89 705 0
-89 729 0
-90 705 0
-90 730 0
-91 705 0
-91 731 0
-92 705 0
-92 732 0
-93 705 0
-93 733 0
-94 705 0
-94 734 0
-95 705 0
-95 735 0
-96 706 0
-96 720 0
-97 706 0
-97 721 0
-98 706 0
-98 722 0
-99 706 0
-99 723 0
-100 706 0
-100 724 0
-101 706 0
-101 725 0
-102 706 0
-102 726 0
-103 706 0
-103 727 0
-104 706 0
-104 728 0
-105 706 0
-105 729 0
-106 706 0
-106 730 0
-107 706 0
-107 731 0
-108 706 0
-108 732 0
-109 706 0
-109 733 0
-110 706 0
-110 734 0
-111 706 0
-111 735 0
-112 707 0
-112 720 0
-113 707 0
-113 721 0
-114 707 0
-114 722 0
-115 707 0
-115 723 0
-116 707 0
-116 724 0
-117 707 0
-117 725 0
-118 707 0
-118 726 0
-119 707 0
-119 727 0
-120 707 0
-120 728 0
-121 707 0
-121 729 0
-122 707 0
-122 730 0
-123 707 0
-123 731 0
-124 707 0
-124 732 0
-125 707 0
-125 733 0
-126 707 0
-126 734 0
-127 707 0
-127 735 0
-192 708 0
-192 720 0
-193 708 0
-193 721 0
-194 708 0
-194 722 0
-195 708 0
-195 723 0
-196 708 0
-196 724 0
-197 708 0
-197 725 0
-198 708 0
-198 726 0
-199 708 0
-199 727 0
-200 708 0
-200 728 0
-201 708 0
-201 729 0
-202 708 0
-202 730 0
-203 708 0
-203 731 0
-204 708 0
-204 732 0
-205 708 0
-205 733 0
-206 708 0
-206 734 0
-207 708 0
-207 735 0
-208 709 0
-208 720 0
-209 709 0
-209 721 0
-210 709 0
-210 722 0
-211 709 0
-211 723 0
-212 709 0
-212 724 0
-213 709 0
-213 725 0
-214 709 0
-214 726 0
-215 709 0
-215 727 0
-216 709 0
-216 728 0
-217 709 0
-217 729 0
-218 709 0
-218 730 0
-219 709 0
-219 731 0
-220 709 0
-220 732 0
-221 709 0
-221 733 0
-222 709 0
-222 734 0
-223 709 0
-223 735 0
-224 710 0
-224 720 0
-225 710 0
-225 721 0
-226 710 0
-226 722 0
-227 710 0
-227 723 0
-228 710 0
-228 724 0
-229 710 0
-229 725 0
-230 710 0
-230 726 0
-231 710 0
-231 727 0
-232 710 0
-232 728 0
-233 710 0
-233 729 0
-234 710 0
-234 730 0
-235 710 0
-235 731 0
-236 710 0
-236 732 0
-237 710 0
-237 733 0
-238 710 0
-238 734 0
-239 710 0
-239 735 0
-240 711 0
-240 720 0
-241 711 0
-241 721 0
-242 711 0
-242 722 0
-243 711 0
-243 723 0
-244 711 0
-244 724 0
-245 711 0
-245 725 0
-246 711 0
-246 726 0
-247 711 0
-247 727 0
-248 711 0
-248 728 0
-249 711 0
-249 729 0
-250 711 0
-250 730 0
-251 711 0
-251 731 0
-252 711 0
-252 732 0
-253 711 0
-253 733 0
-254 711 0
-254 734 0
-255 711 0
-255 735 0
-320 712 0
-320 720 0
-321 712 0
-321 721 0
-322 712 0
-322 722 0
-323 712 0
-323 723 0
-324 712 0
-324 724 0
-325 712 0
-325 725 0
-326 712 0
-326 726 0
-327 712 0
-327 727 0
-328 712 0
-328 728 0
-329 712 0
-329 729 0
-330 712 0
-330 730 0
-331 712 0
-331 731 0
-332 712 0
-332 732 0
-333 712 0
-333 733 0
-334 712 0
-334 734 0
-335 712 0
-335 735 0
-336 713 0
-336 720 0
-337 713 0
-337 721 0
-338 713 0
-338 722 0
-339 713 0
-339 723 0
-340 713 0
-340 724 0
-341 713 0
-341 725 0
-342 713 0
-342 726 0
-343 713 0
-343 727 0
-344 713 0
-344 728 0
-345 713 0
-345 729 0
-346 713 0
-346 730 0
-347 713 0
-347 731 0
-348 713 0
-348 732 0
-349 713 0
-349 733 0
-350 713 0
-350 734 0
-351 713 0
-351 735 0
-352 714 0
-352 720 0
-353 714 0
-353 721 0
-354 714 0
-354 722 0
-355 714 0
-355 723 0
-356 714 0
-356 724 0
-357 714 0
-357 725 0
-358 714 0
-358 726 0
-359 714 0
-359 727 0
-360 714 0
-360 728 0
-361 714 0
-361 729 0
-362 714 0
-362 730 0
-363 714 0
-363 731 0
-364 714 0
-364 732 0
-365 714 0
-365 733 0
-366 714 0
-366 734 0
-367 714 0
-367 735 0
-368 715 0
-368 720 0
-369 715 0
-369 721 0
-370 715 0
-370 722 0
-371 715 0
-371 723 0
-372 715 0
-372 724 0
-373 715 0
-373 725 0
-374 715 0
-374 726 0
-375 715 0
-375 727 0
-376 715 0
-376 728 0
-377 715 0
-377 729 0
-378 715 0
-378 730 0
-379 715 0
-379 731 0
-380 715 0
-380 732 0
-381 715 0
-381 733 0
-382 715 0
-382 734 0
-383 715 0
-383 735 0
-448 716 0
-448 720 0
-449 716 0
-449 721 0
-450 716 0
-450 722 0
-451 716 0
-451 723 0
-452 716 0
-452 724 0
-453 716 0
-453 725 0
-454 716 0
-454 726 0
-455 716 0
-455 727 0
-456 716 0
-456 728 0
-457 716 0
-457 729 0
-458 716 0
-458 730 0
-459 716 0
-459 731 0
-460 716 0
-460 732 0
-461 716 0
-461 733 0
-462 716 0
-462 734 0
-463 716 0
-463 735 0
-464 717 0
-464 720 0
-465 717 0
-465 721 0
-466 717 0
-466 722 0
-467 717 0
-467 723 0
-468 717 0
-468 724 0
-469 717 0
-469 725 0
-470 717 0
-470 726 0
-471 717 0
-471 727 0
-472 717 0
-472 728 0
-473 717 0
-473 729 0
-474 717 0
-474 730 0
-475 717 0
-475 731 0
-476 717 0
-476 732 0
-477 717 0
-477 733 0
-478 717 0
-478 734 0
-479 717 0
-479 735 0
-480 718 0
-480 720 0
-481 718 0
-481 721 0
-482 718 0
-482 722 0
-483 718 0
-483 723 0
-484 718 0
-484 724 0
-485 718 0
-485 725 0
-486 718 0
-486 726 0
-487 718 0
-487 727 0
-488 718 0
-488 728 0
-489 718 0
-489 729 0
-490 718 0
-490 730 0
-491 718 0
-491 731 0
-492 718 0
-492 732 0
-493 718 0
-493 733 0
-494 718 0
-494 734 0
-495 718 0
-495 735 0
-496 719 0
-496 720 0
-497 719 0
-497 721 0
-498 719 0
-498 722 0
-499 719 0
-499 723 0
-500 719 0
-500 724 0
-501 719 0
-501 725 0
-502 719 0
-502 726 0
-503 719 0
-503 727 0
-504 719 0
-504 728 0
-505 719 0
-505 729 0
-506 719 0
-506 730 0
-507 719 0
-507 731 0
-508 719 0
-508 732 0
-509 719 0
-509 733 0
-510 719 0
-510 734 0
-511 719 0
-511 735 0
128 129 130 131 132 133 134 135 136 137 138 139 140 141 142 143 144 145 146 147 148 149 150 151 152 153 154 155 156 157 158 159 160 161 162 163 164 165 166 167 168 169 170 171 172 173 174 175 176 177 178 179 180 181 182 183 184 185 186 187 188 189 190 191 192 193 194 195 196 197 198 199 200 201 202 203 204 205 206 207 208 209 210 211 212 213 214 215 216 217 218 219 220 221 222 223 224 225 226 227 228 229 230 231 232 233 234 235 236 237 238 239 240 241 242 243 244 245 246 247 248 249 250 251 252 253 254 255 384 385 386 387 388 389 390 391 392 393 394 395 396 397 398 399 400 401 402 403 404 405 406 407 408 409 410 411 412 413 414 415 416 417 418 419 420 421 422 423 424 425 426 427 428 429 430 431 432 433 434 435 436 437 438 439 440 441 442 443 444 445 446 447 448 449 450 451 452 453 454 455 456 457 458 459 460 461 462 463 464 465 466 467 468 469 470 471 472 473 474 475 476 477 478 479 480 481 482 483 484 485 486 487 488 489 490 491 492 493 494 495 496 497 498 499 500 501 502 503 504 505 506 507 508 509 510 511 0
736 737 738 739 740 741 742 743 744 745 746 747 748 749 750 751 0
-736 -737 0
-736 -738 0
-736 -739 0
-736 -740 0
-736 -741 0
-736 -742 0
-736 -743 0
-736 -744 0
-736 -745 0
-736 -746 0
-736 -747 0
-736 -748 0
-736 -749 0
-736 -750 0
-736 -751 0
-737 -738 0
-737 -739 0
-737 -740 0
-737 -741 0
-737 -742 0
-737 -743 0
-737 -744 0
-737 -745 0
-737 -746 0
-737 -747 0
-737 -748 0
-737 -749 0
-737 -750 0
-737 -751 0
-738 -739 0
-738 -740 0
-738 -741 0
-738 -742 0
-738 -743 0
-738 -744 0
-738 -745 0
-738 -746 0
-738 -747 0
-738 -748 0
-738 -749 0
-738 -750 0
-738 -751 0
-739 -740 0
-739 -741 0
-739 -742 0
-739 -743 0
-739 -744 0
-739 -745 0
-739 -746 0
-739 -747 0
-739 -748 0
-739 -749 0
-739 -750 0
-739 -751 0
-740 -741 0
-740 -742 0
-740 -743 0
-740 -744 0
-740 -745 0
-740 -746 0
-740 -747 0
-740 -748 0
-740 -749 0
-740 -750 0
-740 -751 0
-741 -742 0
-741 -743 0
-741 -744 0
-741 -745 0
-741 -746 0
-741 -747 0
-741 -748 0
-741 -749 0
-741 -750 0
-741 -751 0
-742 -743 0
-742 -744 0
-742 -745 0
-742 -746 0
-742 -747 0
-742 -748 0
-742 -749 0
-742 -750 0
-742 -751 0
-743 -744 0
-743 -745 0
-743 -746 0
-743 -747 0
-743 -748 0
-743 -749 0
-743 -750 0
-743 -751 0
-744 -745 0
-744 -746 0
-744 -747 0
-744 -748 0
-744 -749 0
-744 -750 0
-744 -751 0
-745 -746 0
-745 -747 0
-745 -748 0
-745 -749 0
-745 -750 0
-745 -751 0
-746 -747 0
-746 -748 0
-746 -749 0
-746 -750 0
-746 -751 0
-747 -748 0
-747 -749 0
-747 -750 0
-747 -751 0
-748 -749 0
-748 -750 0
-748 -751 0
-749 -750 0
-749 -751 0
-750 -751 0
752 753 754 755 756 757 758 759 760 761 762 763 764 765 766 767 0
-752 -753 0
-752 -754 0
-752 -755 0
-752 -756 0
-752 -757 0
-752 -758 0
-752 -759 0
-752 -760 0
-752 -761 0
-752 -762 0
-752 -763 0
-752 -764 0
-752 -765 0
-752 -766 0
-752 -767 0
-753 -754 0
-753 -755 0
-753 -756 0
-753 -757 0
-753 -758 0
-753 -759 0
-753 -760 0
-753 -761 0
-753 -762 0
-753 -763 0
-753 -764 0
-753 -765 0
-753 -766 0
-753 -767 0
-754 -755 0
-754 -756 0
-754 -757 0
-754 -758 0
-754 -759 0
-754 -760 0
-754 -761 0
-754 -762 0
-754 -763 0
-754 -764 0
-754 -765 0
-754 -766 0
-754 -767 0
-755 -756 0
-755 -757 0
-755 -758 0
-755 -759 0
-755 -760 0
-755 -761 0
-755 -762 0
-755 -763 0
-755 -764 0
-755 -765 0
-755 -766 0
-755 -767 0
-756 -757 0
-756 -758 0
-756 -759 0
-756 -760 0
-756 -761 0
-756 -762 0
-756 -763 0
-756 -764 0
-756 -765 0
-756 -766 0
-756 -767 0
-757 -758 0
-757 -759 0
-757 -760 0
-757 -761 0
-757 -762 0
-757 -763 0
-757 -764 0
-757 -765 0
-757 -766 0
-757 -767 0
-758 -759 0
-758 -760 0
-758 -761 0
-758 -762 0
-758 -763 0
-758 -764 0
-758 -765 0
-758 -766 0
-758 -767 0
-759 -760 0
-759 -761 0
-759 -762 0
-759 -763 0
-759 -764 0
-759 -765 0
-759 -766 0
-759 -767 0
-760 -761 0
-760 -762 0
-760 -763 0
-760 -764 0
-760 -765 0
-760 -766 0
-760 -767 0
-761 -762 0
-761 -763 0
-761 -764 0
-761 -765 0
-761 -766 0
-761 -767 0
-762 -763 0
-762 -764 0
-762 -765 0
-762 -766 0
-762 -767 0
-763 -764 0
-763 -765 0
-763 -766 0
-763 -767 0
-764 -765 0
-764 -766 0
-764 -767 0
-765 -766 0
-765 -767 0
-766 -767 0
-128 736 0
-128 752 0
-129 736 0
-129 753 0
-130 736 0
-130 754 0
-131 736 0
-131 755 0
-132 736 0
-132 756 0
-133 736 0
-133 757 0
-134 736 0
-134 758 0
-135 736 0
-135 759 0
-136 736 0
-136 760 0
-137 736 0
-137 761 0
-138 736 0
-138 762 0
-139 736 0
-139 763 0
-140 736 0
-140 764 0
-141 736 0
-141 765 0
-142 736 0
-142 766 0
-143 736 0
-143 767 0
-144 737 0
-144 752 0
-145 737 0
-145 753 0
-146 737 0
-146 754 0
-147 737 0
-147 755 0
-148 737 0
-148 756 0
-149 737 0
-149 757 0
-150 737 0
-150 758 0
-151 737 0
-151 759 0
-152 737 0
-152 760 0
-153 737 0
-153 761 0
-154 737 0
-154 762 0
-155 737 0
-155 763 0
-156 737 0
-156 764 0
-157 737 0
-157 765 0
-158 737 0
-158 766 0
-159 737 0
-159 767 0
-160 738 0
-160 752 0
-161 738 0
-161 753 0
-162 738 0
-162 754 0
-163 738 0
-163 755 0
-164 738 0
-164 756 0
-165 738 0
-165 757 0
-166 738 0
-166 758 0
-167 738 0
-167 759 0
-168 738 0
-168 760 0
-169 738 0
-169 761 0
-170 738 0
-170 762 0
-171 738 0
-171 763 0
-172 738 0
-172 764 0
-173 738 0
-173 765 0
-174 738 0
-174 766 0
-175 738 0
-175 767 0
-176 739 0
-176 752 0
-177 739 0
-177 753 0
-178 739 0
-178 754 0
-179 739 0
-179 755 0
-180 739 0
-180 756 0
-181 739 0
-181 757 0
-182 739 0
-182 758 0
-183 739 0
-183 759 0
-184 739 0
-184 760 0
-185 739 0
-185 761 0
-186 739 0
-186 762 0
-187 739 0
-187 763 0
-188 739 0
-188 764 0
-189 739 0
-189 765 0
-190 739 0
-190 766 0
-191 739 0
-191 767 0
-192 740 0
-192 752 0
-193 740 0
-193 753 0
-194 740 0
-194 754 0
-195 740 0
-195 755 0
-196 740 0
-196 756 0
-197 740 0
-197 757 0
-198 740 0
-198 758 0
-199 740 0
-199 759 0
-200 740 0
-200 760 0
-201 740 0
-201 761 0
-202 740 0
-202 762 0
-203 740 0
-203 763 0
-204 740 0
-204 764 0
-205 740 0
-205 765 0
-206 740 0
-206 766 0
-207 740 0
-207 767 0
-208 741 0
-208 752 0
-209 741 0
-209 753 0
-210 741 0
-210 754 0
-211 741 0
-211 755 0
-212 741 0
-212 756 0
-213 741 0
-213 757 0
-214 741 0
-214 758 0
-215 741 0
-215 759 0
-216 741 0
-216 760 0
-217 741 0
-217 761 0
-218 741 0
-218 762 0
-219 741 0
-219 763 0
-220 741 0
-220 764 0
-221 741 0
-221 765 0
-222 741 0
-222 766 0
-223 741 0
-223 767 0
-224 742 0
-224 752 0
-225 742 0
-225 753 0
-226 742 0
-226 754 0
-227 742 0
-227 755 0
-228 742 0
-228 756 0
-229 742 0
-229 757 0
-230 742 0
-230 758 0
-231 742 0
-231 759 0
-232 742 0
-232 760 0
-233 742 0
-233 761 0
-234 742 0
-234 762 0
-235 742 0
-235 763 0
-236 742 0
-236 764 0
-237 742 0
-237 765 0
-238 742 0
-238 766 0
-239 742 0
-239 767 0
-240 743 0
-240 752 0
-241 743 0
-241 753 0
-242 743 0
-242 754 0
-243 743 0
-243 755 0
-244 743 0
-244 756 0
-245 743 0
-245 757 0
-246 743 0
-246 758 0
-247 743 0
-247 759 0
-248 743 0
-248 760 0
-249 743 0
-249 761 0
-250 743 0
-250 762 0
-251 743 0
-251 763 0
-252 743 0
-252 764 0
-253 743 0
-253 765 0
-254 743 0
-254 766 0
-255 743 0
-255 767 0
-384 744 0
-384 752 0
-385 744 0
-385 753 0
-386 744 0
-386 754 0
-387 744 0
-387 755 0
-388 744 0
-388 756 0
-389 744 0
-389 757 0
-390 744 0
-390 758 0
-391 744 0
-391 759 0
-392 744 0
-392 760 0
-393 744 0
-393 761 0
-394 744 0
-394 762 0
-395 744 0
-395 763 0
-396 744 0
-396 764 0
-397 744 0
-397 765 0
-398 744 0
-398 766 0
-399 744 0
-399 767 0
-400 745 0
-400 752 0
-401 745 0
-401 753 0
-402 745 0
-402 754 0
-403 745 0
-403 755 0
-404 745 0
-404 756 0
-405 745 0
-405 757 0
-406 745 0
-406 758 0
-407 745 0
-407 759 0
-408 745 0
-408 760 0
-409 745 0
-409 761 0
-410 745 0
-410 762 0
-411 745 0
-411 763 0
-412 745 0
-412 764 0
-413 745 0
-413 765 0
-414 745 0
-414 766 0
-415 745 0
-415 767 0
-416 746 0
-416 752 0
-417 746 0
-417 753 0
-418 746 0
-418 754 0
-419 746 0
-419 755 0
-420 746 0
-420 756 0
-421 746 0
-421 757 0
-422 746 0
-422 758 0
-423 746 0
-423 759 0
-424 746 0
-424 760 0
-425 746 0
-425 761 0
-426 746 0
-426 762 0
-427 746 0
-427 763 0
-428 746 0
-428 764 0
-429 746 0
-429 765 0
-430 746 0
-430 766 0
-431 746 0
-431 767 0
-432 747 0
-432 752 0
-433 747 0
-433 753 0
-434 747 0
-434 754 0
-435 747 0
-435 755 0
-436 747 0
-436 756 0
-437 747 0
-437 757 0
-438 747 0
-438 758 0
-439 747 0
-439 759 0
-440 747 0
-440 760 0
-441 747 0
-441 761 0
-442 747 0
-442 762 0
-443 747 0
-443 763 0
-444 747 0
-444 764 0
-445 747 0
-445 765 0
-446 747 0
-446 766 0
-447 747 0
-447 767 0
-448 748 0
-448 752 0
-449 748 0
-449 753 0
-450 748 0
-450 754 0
-451 748 0
-451 755 0
-452 748 0
-452 756 0
-453 748 0
-453 757 0
-454 748 0
-454 758 0
-455 748 0
-455 759 0
-456 748 0
-456 760 0
-457 748 0
-457 761 0
-458 748 0
-458 762 0
-459 748 0
-459 763 0
-460 748 0
-460 764 0
-461 748 0
-461 765 0
-462 748 0
-462 766 0
-463 748 0
-463 767 0
-464 749 0
-464 752 0
-465 749 0
-465 753 0
-466 749 0
-466 754 0
-467 749 0
-467 755 0
-468 749 0
-468 756 0
-469 749 0
-469 757 0
-470 749 0
-470 758 0
-471 749 0
-471 759 0
-472 749 0
-472 760 0
-473 749 0
-473 761 0
-474 749 0
-474 762 0
-475 749 0
-475 763 0
-476 749 0
-476 764 0
-477 749 0
-477 765 0
-478 749 0
-478 766 0
-479 749 0
-479 767 0
-480 750 0
-480 752 0
-481 750 0
-481 753 0
-482 750 0
-482 754 0
-483 750 0
-483 755 0
-484 750 0
-484 756 0
-485 750 0
-485 757 0
-486 750 0
-486 758 0
-487 750 0
-487 759 0
-488 750 0
-488 760 0
-489 750 0
-489 761 0
-490 750 0
-490 762 0
-491 750 0
-491 763 0
-492 750 0
-492 764 0
-493 750 0
-493 765 0
-494 750 0
-494 766 0
-495 750 0
-495 767 0
-496 751 0
-496 752 0
-497 751 0
-497 753 0
-498 751 0
-498 754 0
-499 751 0
-499 755 0
-500 751 0
-500 756 0
-501 751 0
-501 757 0
-502 751 0
-502 758 0
-503 751 0
-503 759 0
-504 751 0
-504 760 0
-505 751 0
-505 761 0
-506 751 0
-506 762 0
-507 751 0
-507 763 0
-508 751 0
-508 764 0
-509 751 0
-509 765 0
-510 751 0
-510 766 0
-511 751 0
-511 767 0
256 257 258 259 260 261 262 263 264 265 266 267 268 269 270 271 272 273 274 275 276 277 278 279 280 281 282 283 284 285 286 287 288 289 290 291 292 293 294 295 296 297 298 299 300 301 302 303 304 305 306 307 308 309 310 311 312 313 314 315 316 317 318 319 320 321 322 323 324 325 326 327 328 329 330 331 332 333 334 335 336 337 338 339 340 341 342 343 344 345 346 347 348 349 350 351 352 353 354 355 356 357 358 359 360 361 362 363 364 365 366 367 368 369 370 371 372 373 374 375 376 377 378 379 380 381 382 383 384 385 386 387 388 389 390 391 392 393 394 395 396 397 398 399 400 401 402 403 404 405 406 407 408 409 410 411 412 413 414 415 416 417 418 419 420 421 422 423 424 425 426 427 428 429 430 431 432 433 434 435 436 437 438 439 440 441 442 443 444 445 446 447 448 449 450 451 452 453 454 455 456 457 458 459 460 461 462 463 464 465 466 467 468 469 470 471 472 473 474 475 476 477 478 479 480 481 482 483 484 485 486 487 488 489 490 491 492 493 494 495 496 497 498 499 500 501 502 503 504 505 506 507 508 509 510 511 0
768 769 770 771 772 773 774 775 776 777 778 779 780 781 782 783 0
-768 -769 0
-768 -770 0
-768 -771 0
-768 -772 0
-768 -773 0
-768 -774 0
-768 -775 0
-768 -776 0
-768 -777 0
-768 -778 0
-768 -779 0
-768 -780 0
-768 -781 0
-768 -782 0
-768 -783 0
-769 -770 0
-769 -771 0
-769 -772 0
-769 -773 0
-769 -774 0
-769 -775 0
-769 -776 0
-769 -777 0
-769 -778 0
-769 -779 0
-769 -780 0
-769 -781 0
-769 -782 0
-769 -783 0
-770 -771 0
-770 -772 0
-770 -773 0
-770 -774 0
-770 -775 0
-770 -776 0
-770 -777 0
-770 -778 0
-770 -779 0
-770 -780 0
-770 -781 0
-770 -782 0
-770 -783 0
-771 -772 0
-771 -773 0
-771 -774 0
-771 -775 0
-771 -776 0
-771 -777 0
-771 -778 0
-771 -779 0
-771 -780 0
-771 -781 0
-771 -782 0
-771 -783 0
-772 -773 0
-772 -774 0
-772 -775 0
-772 -776 0
-772 -777 0
-772 -778 0
-772 -779 0
-772 -780 0
-772 -781 0
-772 -782 0
-772 -783 0
-773 -774 0
-773 -775 0
-773 -776 0
-773 -777 0
-773 -778 0
-773 -779 0
-773 -780 0
-773 -781 0
-773 -782 0
-773 -783 0
-774 -775 0
-774 -776 0
-774 -777 0
-774 -778 0
-774 -779 0
-774 -780 0
-774 -781 0
-774 -782 0
-774 -783 0
-775 -776 0
-775 -777 0
-775 -778 0
-775 -779 0
-775 -780 0
-775 -781 0
-775 -782 0
-775 -783 0
-776 -777 0
-776 -778 0
-776 -779 0
-776 -780 0
-776 -781 0
-776 -782 0
-776 -783 0
-777 -778 0
-777 -779 0
-777 -780 0
-777 -781 0
-777 -782 0
-777 -783 0
-778 -779 0
-778 -780 0
-778 -781 0
-778 -782 0
-778 -783 0
-779 -780 0
-779 -781 0
-779 -782 0
-779 -783 0
-780 -781 0
-780 -782 0
-780 -783 0
-781 -782 0
-781 -783 0
-782 -783 0
784 785 786 787 788 789 790 791 792 793 794 795 796 797 798 799 0
-784 -785 0
-784 -786 0
-784 -787 0
-784 -788 0
-784 -789 0
-784 -790 0
-784 -791 0
-784 -792 0
-784 -793 0
-784 -794 0
-784 -795 0
-784 -796 0
-784 -797 0
-784 -798 0
-784 -799 0
-785 -786 0
-785 -787 0
-785 -788 0
-785 -789 0
-785 -790 0
-785 -791 0
-785 -792 0
-785 -793 0
-785 -794 0
-785 -795 0
-785 -796 0
-785 -797 0
-785 -798 0
-785 -799 0
-786 -787 0
-786 -788 0
-786 -789 0
-786 -790 0
-786 -791 0
-786 -792 0
-786 -793 0
-786 -794 0
-786 -795 0
-786 -796 0
-786 -797 0
-786 -798 0
-786 -799 0
-787 -788 0
-787 -789 0
-787 -790 0
-787 -791 0
-787 -792 0
-787 -793 0
-787 -794 0
-787 -795 0
-787 -796 0
-787 -797 0
-787 -798 0
-787 -799 0
-788 -789 0
-788 -790 0
-788 -791 0
-788 -792 0
-788 -793 0
-788 -794 0
-788 -795 0
-788 -796 0
-788 -797 0
-788 -798 0
-788 -799 0
-789 -790 0
-789 -791 0
-789 -792 0
-789 -793 0
-789 -794 0
-789 -795 0
-789 -796 0
-789 -797 0
-789 -798 0
-789 -799 0
-790 -791 0
-790 -792 0
-790 -793 0
-790 -794 0
-790 -795 0
-790 -796 0
-790 -797 0
-790 -798 0
-790 -799 0
-791 -792 0
-791 -793 0
-791 -794 0
-791 -795 0
-791 -796 0
-791 -797 0
-791 -798 0
-791 -799 0
-792 -793 0
-792 -794 0
-792 -795 0
-792 -796 0
-792 -797 0
-792 -798 0
-792 -799 0
-793 -794 0
-793 -795 0
-793 -796 0
-793 -797 0
-793 -798 0
-793 -799 0
-794 -795 0
-794 -796 0
-794 -797 0
-794 -798 0
-794 -799 0
-795 -796 0
-795 -797 0
-795 -798 0
-795 -799 0
-796 -797 0
-796 -798 0
-796 -799 0
-797 -798 0
-797 -799 0
-798 -799 0
-256 768 0
-256 784 0
-257 768 0
-257 785 0
-258 768 0
-258 786 0
-259 768 0
-259 787 0
-260 768 0
-260 788 0
-261 768 0
-261 789 0
-262 768 0
-262 790 0
-263 768 0
-263 791 0
-264 768 0
-264 792 0
-265 768 0
-265 793 0
-266 768 0
-266 794 0
-267 768 0
-267 795 0
-268 768 0
-268 796 0
-269 768 0
-269 797 0
-270 768 0
-270 798 0
-271 768 0
-271 799 0
-272 769 0
-272 784 0
-273 769 0
-273 785 0
-274 769 0
-274 786 0
-275 769 0
-275 787 0
-276 769 0
-276 788 0
-277 769 0
-277 789 0
-278 769 0
-278 790 0
-279 769 0
-279 791 0
-280 769 0
-280 792 0
-281 769 0
-281 793 0
-282 769 0
-282 794 0
-283 769 0
-283 795 0
-284 769 0
-284 796 0
-285 769 0
-285 797 0
-286 769 0
-286 798 0
-287 769 0
-287 799 0
-288 770 0
-288 784 0
-289 770 0
-289 785 0
-290 770 0
-290 786 0
-291 770 0
-291 787 0
-292 770 0
-292 788 0
-293 770 0
-293 789 0
-294 770 0
-294 790 0
-295 770 0
-295 791 0
-296 770 0
-296 792 0
-297 770 0
-297 793 0
-298 770 0
-298 794 0
-299 770 0
-299 795 0
-300 770 0
-300 796 0
-301 770 0
-301 797 0
-302 770 0
-302 798 0
-303 770 0
-303 799 0
-304 771 0
-304 784 0
-305 771 0
-305 785 0
-306 771 0
-306 786 0
-307 771 0
-307 787 0
-308 771 0
-308 788 0
-309 771 0
-309 789 0
-310 771 0
-310 790 0
-311 771 0
-311 791 0
-312 771 0
-312 792 0
-313 771 0
-313 793 0
-314 771 0
-314 794 0
-315 771 0
-315 795 0
-316 771 0
-316 796 0
-317 771 0
-317 797 0
-318 771 0
-318 798 0
-319 771 0
-319 799 0
-320 772 0
-320 784 0
-321 772 0
-321 785 0
-322 772 0
-322 786 0
-323 772 0
-323 787 0
-324 772 0
-324 788 0
-325 772 0
-325 789 0
-326 772 0
-326 790 0
-327 772 0
-327 791 0
-328 772 0
-328 792 0
-329 772 0
-329 793 0
-330 772 0
-330 794 0
-331 772 0
-331 795 0
-332 772 0
-332 796 0
-333 772 0
-333 797 0
-334 772 0
-334 798 0
-335 772 0
-335 799 0
-336 773 0
-336 784 0
-337 773 0
-337 785 0
-338 773 0
-338 786 0
-339 773 0
-339 787 0
-340 773 0
-340 788 0
-341 773 0
-341 789 0
-342 773 0
-342 790 0
-343 773 0
-343 791 0
-344 773 0
-344 792 0
-345 773 0
-345 793 0
-346 773 0
-346 794 0
-347 773 0
-347 795 0
-348 773 0
-348 796 0
-349 773 0
-349 797 0
-350 773 0
-350 798 0
-351 773 0
-351 799 0
-352 774 0
-352 784 0
-353 774 0
-353 785 0
-354 774 0
-354 786 0
-355 774 0
-355 787 0
-356 774 0
-356 788 0
-357 774 0
-357 789 0
-358 774 0
-358 790 0
-359 774 0
-359 791 0
-360 774 0
-360 792 0
-361 774 0
-361 793 0
-362 774 0
-362 794 0
-363 774 0
-363 795 0
-364 774 0
-364 796 0
-365 774 0
-365 797 0
-366 774 0
-366 798 0
-367 774 0
-367 799 0
-368 775 0
-368 784 0
-369 775 0
-369 785 0
-370 775 0
-370 786 0
-371 775 0
-371 787 0
-372 775 0
-372 788 0
-373 775 0
-373 789 0
-374 775 0
-374 790 0
-375 775 0
-375 791 0
-376 775 0
-376 792 0
-377 775 0
-377 793 0
-378 775 0
-378 794 0
-379 775 0
-379 795 0
-380 775 0
-380 796 0
-381 775 0
-381 797 0
-382 775 0
-382 798 0
-383 775 0
-383 799 0
-384 776 0
-384 784 0
-385 776 0
-385 785 0
-386 776 0
-386 786 0
-387 776 0
-387 787 0
-388 776 0
-388 788 0
-389 776 0
-389 789 0
-390 776 0
-390 790 0
-391 776 0
-391 791 0
-392 776 0
-392 792 0
-393 776 0
-393 793 0
-394 776 0
-394 794 0
-395 776 0
-395 795 0
-396 776 0
-396 796 0
-397 776 0
-397 797 0
-398 776 0
-398 798 0
-399 776 0
-399 799 0
-400 777 0
-400 784 0
-401 777 0
-401 785 0
-402 777 0
-402 786 0
-403 777 0
-403 787 0
-404 777 0
-404 788 0
-405 777 0
-405 789 0
-406 777 0
-406 790 0
-407 777 0
-407 791 0
-408 777 0
-408 792 0
-409 777 0
-409 793 0
-410 777 0
-410 794 0
-411 777 0
-411 795 0
-412 777 0
-412 796 0
-413 777 0
-413 797 0
-414 777 0
-414 798 0
-415 777 0
-415 799 0
-416 778 0
-416 784 0
-417 778 0
-417 785 0
-418 778 0
-418 786 0
-419 778 0
-419 787 0
-420 778 0
-420 788 0
-421 778 0
-421 789 0
-422 778 0
-422 790 0
-423 778 0
-423 791 0
-424 778 0
-424 792 0
-425 778 0
-425 793 0
-426 778 0
-426 794 0
-427 778 0
-427 795 0
-428 778 0
-428 796 0
-429 778 0
-429 797 0
-430 778 0
-430 798 0
-431 778 0
-431 799 0
-432 779 0
-432 784 0
-433 779 0
-433 785 0
-434 779 0
-434 786 0
-435 779 0
-435 787 0
-436 779 0
-436 788 0
-437 779 0
-437 789 0
-438 779 0
-438 790 0
-439 779 0
-439 791 0
-440 779 0
-440 792 0
-441 779 0
-441 793 0
-442 779 0
-442 794 0
-443 779 0
-443 795 0
-444 779 0
-444 796 0
-445 779 0
-445 797 0
-446 779 0
-446 798 0
-447 779 0
-447 799 0
-448 780 0
-448 784 0
-449 780 0
-449 785 0
-450 780 0
-450 786 0
-451 780 0
-451 787 0
-452 780 0
-452 788 0
-453 780 0
-453 789 0
-454 780 0
-454 790 0
-455 780 0
-455 791 0
-456 780 0
-456 792 0
-457 780 0
-457 793 0
-458 780 0
-458 794 0
-459 780 0
-459 795 0
-460 780 0
-460 796 0
-461 780 0
-461 797 0
-462 780 0
-462 798 0
-463 780 0
-463 799 0
-464 781 0
-464 784 0
-465 781 0
-465 785 0
-466 781 0
-466 786 0
-467 781 0
-467 787 0
-468 781 0
-468 788 0
-469 781 0
-469 789 0
-470 781 0
-470 790 0
-471 781 0
-471 791 0
-472 781 0
-472 792 0
-473 781 0
-473 793 0
-474 781 0
-474 794 0
-475 781 0
-475 795 0
-476 781 0
-476 796 0
-477 781 0
-477 797 0
-478 781 0
-478 798 0
-479 781 0
-479 799 0
-480 782 0
-480 784 0
-481 782 0
-481 785 0
-482 782 0
-482 786 0
-483 782 0
-483 787 0
-484 782 0
-484 788 0
-485 782 0
-485 789 0
-486 782 0
-486 790 0
-487 782 0
-487 791 0
-488 782 0
-488 792 0
-489 782 0
-489 793 0
-490 782 0
-490 794 0
-491 782 0
-491 795 0
-492 782 0
-492 796 0
-493 782 0
-493 797 0
-494 782 0
-494 798 0
-495 782 0
-495 799 0
-496 783 0
-496 784 0
-497 783 0
-497 785 0
-498 783 0
-498 786 0
-499 783 0
-499 787 0
-500 783 0
-500 788 0
-501 783 0
-501 789 0
-502 783 0
-502 790 0
-503 783 0
-503 791 0
-504 783 0
-504 792 0
-505 783 0
-505 793 0
-506 783 0
-506 794 0
-507 783 0
-507 795 0
-508 783 0
-508 796 0
-509 783 0
-509 797 0
-510 783 0
-510 798 0
-511 783 0
-511 799 0
