p cnf 583 18441
1 3 5 7 9 11 13 15 17 19 21 23 25 27 29 31 33 35 37 39 41 43 45 47 49 51 53 55 57 59 61 63 65 67 69 71 73 75 77 79 81 83 85 87 89 91 93 95 97 99 101 103 105 107 109 111 113 115 117 119 121 123 125 127 129 131 133 135 137 139 141 143 145 147 149 151 153 155 157 159 161 163 165 167 169 171 173 175 177 179 181 183 185 187 189 191 193 195 197 199 201 203 205 207 209 211 213 215 217 219 221 223 225 227 229 231 233 235 237 239 241 243 245 247 249 251 253 255 257 259 261 263 265 267 269 271 273 275 277 279 281 283 285 287 289 291 293 295 297 299 301 303 305 307 309 311 313 315 317 319 321 323 325 327 329 331 333 335 337 339 341 343 345 347 349 351 353 355 357 359 361 363 365 367 369 371 373 375 377 379 381 383 385 387 389 391 393 395 397 399 401 403 405 407 409 411 413 415 417 419 421 423 425 427 429 431 433 435 437 439 441 443 445 447 449 451 453 455 457 459 461 463 465 467 469 471 473 475 477 479 481 483 485 487 489 491 493 495 497 499 501 503 505 507 509 511 0
-1 -512 0
-1 -513 0
-1 -514 0
-1 -515 0
-1 -516 0
-1 -517 0
-1 -518 0
-1 -519 0
-3 512 0
-3 -513 0
-3 -514 0
-3 -515 0
-3 -516 0
-3 -517 0
-3 -518 0
-3 -519 0
-5 -512 0
-5 513 0
-5 -514 0
-5 -515 0
-5 -516 0
-5 -517 0
-5 -518 0
-5 -519 0
-7 512 0
-7 513 0
-7 -514 0
-7 -515 0
-7 -516 0
-7 -517 0
-7 -518 0
-7 -519 0
-9 -512 0
-9 -513 0
-9 514 0
-9 -515 0
-9 -516 0
-9 -517 0
-9 -518 0
-9 -519 0
-11 512 0
-11 -513 0
-11 514 0
-11 -515 0
-11 -516 0
-11 -517 0
-11 -518 0
-11 -519 0
-13 -512 0
-13 513 0
-13 514 0
-13 -515 0
-13 -516 0
-13 -517 0
-13 -518 0
-13 -519 0
-15 512 0
-15 513 0
-15 514 0
-15 -515 0
-15 -516 0
-15 -517 0
-15 -518 0
-15 -519 0
-17 -512 0
-17 -513 0
-17 -514 0
-17 515 0
-17 -516 0
-17 -517 0
-17 -518 0
-17 -519 0
-19 512 0
-19 -513 0
-19 -514 0
-19 515 0
-19 -516 0
-19 -517 0
-19 -518 0
-19 -519 0
-21 -512 0
-21 513 0
-21 -514 0
-21 515 0
-21 -516 0
-21 -517 0
-21 -518 0
-21 -519 0
-23 512 0
-23 513 0
-23 -514 0
-23 515 0
-23 -516 0
-23 -517 0
-23 -518 0
-23 -519 0
-25 -512 0
-25 -513 0
-25 514 0
-25 515 0
-25 -516 0
-25 -517 0
-25 -518 0
-25 -519 0
-27 512 0
-27 -513 0
-27 514 0
-27 515 0
-27 -516 0
-27 -517 0
-27 -518 0
-27 -519 0
-29 -512 0
-29 513 0
-29 514 0
-29 515 0
-29 -516 0
-29 -517 0
-29 -518 0
-29 -519 0
-31 512 0
-31 513 0
-31 514 0
-31 515 0
-31 -516 0
-31 -517 0
-31 -518 0
-31 -519 0
-33 -512 0
-33 -513 0
-33 -514 0
-33 -515 0
-33 516 0
-33 -517 0
-33 -518 0
-33 -519 0
-35 512 0
-35 -513 0
-35 -514 0
-35 -515 0
-35 516 0
-35 -517 0
-35 -518 0
-35 -519 0
-37 -512 0
-37 513 0
-37 -514 0
-37 -515 0
-37 516 0
-37 -517 0
-37 -518 0
-37 -519 0
-39 512 0
-39 513 0
-39 -514 0
-39 -515 0
-39 516 0
-39 -517 0
-39 -518 0
-39 -519 0
-41 -512 0
-41 -513 0
-41 514 0
-41 -515 0
-41 516 0
-41 -517 0
-41 -518 0
-41 -519 0
-43 512 0
-43 -513 0
-43 514 0
-43 -515 0
-43 516 0
-43 -517 0
-43 -518 0
-43 -519 0
-45 -512 0
-45 513 0
-45 514 0
-45 -515 0
-45 516 0
-45 -517 0
-45 -518 0
-45 -519 0
-47 512 0
-47 513 0
-47 514 0
-47 -515 0
-47 516 0
-47 -517 0
-47 -518 0
-47 -519 0
-49 -512 0
-49 -513 0
-49 -514 0
-49 515 0
-49 516 0
-49 -517 0
-49 -518 0
-49 -519 0
-51 512 0
-51 -513 0
-51 -514 0
-51 515 0
-51 516 0
-51 -517 0
-51 -518 0
-51 -519 0
-53 -512 0
-53 513 0
-53 -514 0
-53 515 0
-53 516 0
-53 -517 0
-53 -518 0
-53 -519 0
-55 512 0
-55 513 0
-55 -514 0
-55 515 0
-55 516 0
-55 -517 0
-55 -518 0
-55 -519 0
-57 -512 0
-57 -513 0
-57 514 0
-57 515 0
-57 516 0
-57 -517 0
-57 -518 0
-57 -519 0
-59 512 0
-59 -513 0
-59 514 0
-59 515 0
-59 516 0
-59 -517 0
-59 -518 0
-59 -519 0
-61 -512 0
-61 513 0
-61 514 0
-61 515 0
-61 516 0
-61 -517 0
-61 -518 0
-61 -519 0
-63 512 0
-63 513 0
-63 514 0
-63 515 0
-63 516 0
-63 -517 0
-63 -518 0
-63 -519 0
-65 -512 0
-65 -513 0
-65 -514 0
-65 -515 0
-65 -516 0
-65 517 0
-65 -518 0
-65 -519 0
-67 512 0
-67 -513 0
-67 -514 0
-67 -515 0
-67 -516 0
-67 517 0
-67 -518 0
-67 -519 0
-69 -512 0
-69 513 0
-69 -514 0
-69 -515 0
-69 -516 0
-69 517 0
-69 -518 0
-69 -519 0
-71 512 0
-71 513 0
-71 -514 0
-71 -515 0
-71 -516 0
-71 517 0
-71 -518 0
-71 -519 0
-73 -512 0
-73 -513 0
-73 514 0
-73 -515 0
-73 -516 0
-73 517 0
-73 -518 0
-73 -519 0
-75 512 0
-75 -513 0
-75 514 0
-75 -515 0
-75 -516 0
-75 517 0
-75 -518 0
-75 -519 0
-77 -512 0
-77 513 0
-77 514 0
-77 -515 0
-77 -516 0
-77 517 0
-77 -518 0
-77 -519 0
-79 512 0
-79 513 0
-79 514 0
-79 -515 0
-79 -516 0
-79 517 0
-79 -518 0
-79 -519 0
-81 -512 0
-81 -513 0
-81 -514 0
-81 515 0
-81 -516 0
-81 517 0
-81 -518 0
-81 -519 0
-83 512 0
-83 -513 0
-83 -514 0
-83 515 0
-83 -516 0
-83 517 0
-83 -518 0
-83 -519 0
-85 -512 0
-85 513 0
-85 -514 0
-85 515 0
-85 -516 0
-85 517 0
-85 -518 0
-85 -519 0
-87 512 0
-87 513 0
-87 -514 0
-87 515 0
-87 -516 0
-87 517 0
-87 -518 0
-87 -519 0
-89 -512 0
-89 -513 0
-89 514 0
-89 515 0
-89 -516 0
-89 517 0
-89 -518 0
-89 -519 0
-91 512 0
-91 -513 0
-91 514 0
-91 515 0
-91 -516 0
-91 517 0
-91 -518 0
-91 -519 0
-93 -512 0
-93 513 0
-93 514 0
-93 515 0
-93 -516 0
-93 517 0
-93 -518 0
-93 -519 0
-95 512 0
-95 513 0
-95 514 0
-95 515 0
-95 -516 0
-95 517 0
-95 -518 0
-95 -519 0
-97 -512 0
-97 -513 0
-97 -514 0
-97 -515 0
-97 516 0
-97 517 0
-97 -518 0
-97 -519 0
-99 512 0
-99 -513 0
-99 -514 0
-99 -515 0
-99 516 0
-99 517 0
-99 -518 0
-99 -519 0
-101 -512 0
-101 513 0
-101 -514 0
-101 -515 0
-101 516 0
-101 517 0
-101 -518 0
-101 -519 0
-103 512 0
-103 513 0
-103 -514 0
-103 -515 0
-103 516 0
-103 517 0
-103 -518 0
-103 -519 0
-105 -512 0
-105 -513 0
-105 514 0
-105 -515 0
-105 516 0
-105 517 0
-105 -518 0
-105 -519 0
-107 512 0
-107 -513 0
-107 514 0
-107 -515 0
-107 516 0
-107 517 0
-107 -518 0
-107 -519 0
-109 -512 0
-109 513 0
-109 514 0
-109 -515 0
-109 516 0
-109 517 0
-109 -518 0
-109 -519 0
-111 512 0
-111 513 0
-111 514 0
-111 -515 0
-111 516 0
-111 517 0
-111 -518 0
-111 -519 0
-113 -512 0
-113 -513 0
-113 -514 0
-113 515 0
-113 516 0
-113 517 0
-113 -518 0
-113 -519 0
-115 512 0
-115 -513 0
-115 -514 0
-115 515 0
-115 516 0
-115 517 0
-115 -518 0
-115 -519 0
-117 -512 0
-117 513 0
-117 -514 0
-117 515 0
-117 516 0
-117 517 0
-117 -518 0
-117 -519 0
-119 512 0
-119 513 0
-119 -514 0
-119 515 0
-119 516 0
-119 517 0
-119 -518 0
-119 -519 0
-121 -512 0
-121 -513 0
-121 514 0
-121 515 0
-121 516 0
-121 517 0
-121 -518 0
-121 -519 0
-123 512 0
-123 -513 0
-123 514 0
-123 515 0
-123 516 0
-123 517 0
-123 -518 0
-123 -519 0
-125 -512 0
-125 513 0
-125 514 0
-125 515 0
-125 516 0
-125 517 0
-125 -518 0
-125 -519 0
-127 512 0
-127 513 0
-127 514 0
-127 515 0
-127 516 0
-127 517 0
-127 -518 0
-127 -519 0
-129 -512 0
-129 -513 0
-129 -514 0
-129 -515 0
-129 -516 0
-129 -517 0
-129 518 0
-129 -519 0
-131 512 0
-131 -513 0
-131 -514 0
-131 -515 0
-131 -516 0
-131 -517 0
-131 518 0
-131 -519 0
-133 -512 0
-133 513 0
-133 -514 0
-133 -515 0
-133 -516 0
-133 -517 0
-133 518 0
-133 -519 0
-135 512 0
-135 513 0
-135 -514 0
-135 -515 0
-135 -516 0
-135 -517 0
-135 518 0
-135 -519 0
-137 -512 0
-137 -513 0
-137 514 0
-137 -515 0
-137 -516 0
-137 -517 0
-137 518 0
-137 -519 0
-139 512 0
-139 -513 0
-139 514 0
-139 -515 0
-139 -516 0
-139 -517 0
-139 518 0
-139 -519 0
-141 -512 0
-141 513 0
-141 514 0
-141 -515 0
-141 -516 0
-141 -517 0
-141 518 0
-141 -519 0
-143 512 0
-143 513 0
-143 514 0
-143 -515 0
-143 -516 0
-143 -517 0
-143 518 0
-143 -519 0
-145 -512 0
-145 -513 0
-145 -514 0
-145 515 0
-145 -516 0
-145 -517 0
-145 518 0
-145 -519 0
-147 512 0
-147 -513 0
-147 -514 0
-147 515 0
-147 -516 0
-147 -517 0
-147 518 0
-147 -519 0
-149 -512 0
-149 513 0
-149 -514 0
-149 515 0
-149 -516 0
-149 -517 0
-149 518 0
-149 -519 0
-151 512 0
-151 513 0
-151 -514 0
-151 515 0
-151 -516 0
-151 -517 0
-151 518 0
-151 -519 0
-153 -512 0
-153 -513 0
-153 514 0
-153 515 0
-153 -516 0
-153 -517 0
-153 518 0
-153 -519 0
-155 512 0
-155 -513 0
-155 514 0
-155 515 0
-155 -516 0
-155 -517 0
-155 518 0
-155 -519 0
-157 -512 0
-157 513 0
-157 514 0
-157 515 0
-157 -516 0
-157 -517 0
-157 518 0
-157 -519 0
-159 512 0
-159 513 0
-159 514 0
-159 515 0
-159 -516 0
-159 -517 0
-159 518 0
-159 -519 0
-161 -512 0
-161 -513 0
-161 -514 0
-161 -515 0
-161 516 0
-161 -517 0
-161 518 0
-161 -519 0
-163 512 0
-163 -513 0
-163 -514 0
-163 -515 0
-163 516 0
-163 -517 0
-163 518 0
-163 -519 0
-165 -512 0
-165 513 0
-165 -514 0
-165 -515 0
-165 516 0
-165 -517 0
-165 518 0
-165 -519 0
-167 512 0
-167 513 0
-167 -514 0
-167 -515 0
-167 516 0
-167 -517 0
-167 518 0
-167 -519 0
-169 -512 0
-169 -513 0
-169 514 0
-169 -515 0
-169 516 0
-169 -517 0
-169 518 0
-169 -519 0
-171 512 0
-171 -513 0
-171 514 0
-171 -515 0
-171 516 0
-171 -517 0
-171 518 0
-171 -519 0
-173 -512 0
-173 513 0
-173 514 0
-173 -515 0
-173 516 0
-173 -517 0
-173 518 0
-173 -519 0
-175 512 0
-175 513 0
-175 514 0
-175 -515 0
-175 516 0
-175 -517 0
-175 518 0
-175 -519 0
-177 -512 0
-177 -513 0
-177 -514 0
-177 515 0
-177 516 0
-177 -517 0
-177 518 0
-177 -519 0
-179 512 0
-179 -513 0
-179 -514 0
-179 515 0
-179 516 0
-179 -517 0
-179 518 0
-179 -519 0
-181 -512 0
-181 513 0
-181 -514 0
-181 515 0
-181 516 0
-181 -517 0
-181 518 0
-181 -519 0
-183 512 0
-183 513 0
-183 -514 0
-183 515 0
-183 516 0
-183 -517 0
-183 518 0
-183 -519 0
-185 -512 0
-185 -513 0
-185 514 0
-185 515 0
-185 516 0
-185 -517 0
-185 518 0
-185 -519 0
-187 512 0
-187 -513 0
-187 514 0
-187 515 0
-187 516 0
-187 -517 0
-187 518 0
-187 -519 0
-189 -512 0
-189 513 0
-189 514 0
-189 515 0
-189 516 0
-189 -517 0
-189 518 0
-189 -519 0
-191 512 0
-191 513 0
-191 514 0
-191 515 0
-191 516 0
-191 -517 0
-191 518 0
-191 -519 0
-193 -512 0
-193 -513 0
-193 -514 0
-193 -515 0
-193 -516 0
-193 517 0
-193 518 0
-193 -519 0
-195 512 0
-195 -513 0
-195 -514 0
-195 -515 0
-195 -516 0
-195 517 0
-195 518 0
-195 -519 0
-197 -512 0
-197 513 0
-197 -514 0
-197 -515 0
-197 -516 0
-197 517 0
-197 518 0
-197 -519 0
-199 512 0
-199 513 0
-199 -514 0
-199 -515 0
-199 -516 0
-199 517 0
-199 518 0
-199 -519 0
-201 -512 0
-201 -513 0
-201 514 0
-201 -515 0
-201 -516 0
-201 517 0
-201 518 0
-201 -519 0
-203 512 0
-203 -513 0
-203 514 0
-203 -515 0
-203 -516 0
-203 517 0
-203 518 0
-203 -519 0
-205 -512 0
-205 513 0
-205 514 0
-205 -515 0
-205 -516 0
-205 517 0
-205 518 0
-205 -519 0
-207 512 0
-207 513 0
-207 514 0
-207 -515 0
-207 -516 0
-207 517 0
-207 518 0
-207 -519 0
-209 -512 0
-209 -513 0
-209 -514 0
-209 515 0
-209 -516 0
-209 517 0
-209 518 0
-209 -519 0
-211 512 0
-211 -513 0
-211 -514 0
-211 515 0
-211 -516 0
-211 517 0
-211 518 0
-211 -519 0
-213 -512 0
-213 513 0
-213 -514 0
-213 515 0
-213 -516 0
-213 517 0
-213 518 0
-213 -519 0
-215 512 0
-215 513 0
-215 -514 0
-215 515 0
-215 -516 0
-215 517 0
-215 518 0
-215 -519 0
-217 -512 0
-217 -513 0
-217 514 0
-217 515 0
-217 -516 0
-217 517 0
-217 518 0
-217 -519 0
-219 512 0
-219 -513 0
-219 514 0
-219 515 0
-219 -516 0
-219 517 0
-219 518 0
-219 -519 0
-221 -512 0
-221 513 0
-221 514 0
-221 515 0
-221 -516 0
-221 517 0
-221 518 0
-221 -519 0
-223 512 0
-223 513 0
-223 514 0
-223 515 0
-223 -516 0
-223 517 0
-223 518 0
-223 -519 0
-225 -512 0
-225 -513 0
-225 -514 0
-225 -515 0
-225 516 0
-225 517 0
-225 518 0
-225 -519 0
-227 512 0
-227 -513 0
-227 -514 0
-227 -515 0
-227 516 0
-227 517 0
-227 518 0
-227 -519 0
-229 -512 0
-229 513 0
-229 -514 0
-229 -515 0
-229 516 0
-229 517 0
-229 518 0
-229 -519 0
-231 512 0
-231 513 0
-231 -514 0
-231 -515 0
-231 516 0
-231 517 0
-231 518 0
-231 -519 0
-233 -512 0
-233 -513 0
-233 514 0
-233 -515 0
-233 516 0
-233 517 0
-233 518 0
-233 -519 0
-235 512 0
-235 -513 0
-235 514 0
-235 -515 0
-235 516 0
-235 517 0
-235 518 0
-235 -519 0
-237 -512 0
-237 513 0
-237 514 0
-237 -515 0
-237 516 0
-237 517 0
-237 518 0
-237 -519 0
-239 512 0
-239 513 0
-239 514 0
-239 -515 0
-239 516 0
-239 517 0
-239 518 0
-239 -519 0
-241 -512 0
-241 -513 0
-241 -514 0
-241 515 0
-241 516 0
-241 517 0
-241 518 0
-241 -519 0
-243 512 0
-243 -513 0
-243 -514 0
-243 515 0
-243 516 0
-243 517 0
-243 518 0
-243 -519 0
-245 -512 0
-245 513 0
-245 -514 0
-245 515 0
-245 516 0
-245 517 0
-245 518 0
-245 -519 0
-247 512 0
-247 513 0
-247 -514 0
-247 515 0
-247 516 0
-247 517 0
-247 518 0
-247 -519 0
-249 -512 0
-249 -513 0
-249 514 0
-249 515 0
-249 516 0
-249 517 0
-249 518 0
-249 -519 0
-251 512 0
-251 -513 0
-251 514 0
-251 515 0
-251 516 0
-251 517 0
-251 518 0
-251 -519 0
-253 -512 0
-253 513 0
-253 514 0
-253 515 0
-253 516 0
-253 517 0
-253 518 0
-253 -519 0
-255 512 0
-255 513 0
-255 514 0
-255 515 0
-255 516 0
-255 517 0
-255 518 0
-255 -519 0
-257 -512 0
-257 -513 0
-257 -514 0
-257 -515 0
-257 -516 0
-257 -517 0
-257 -518 0
-257 519 0
-259 512 0
-259 -513 0
-259 -514 0
-259 -515 0
-259 -516 0
-259 -517 0
-259 -518 0
-259 519 0
-261 -512 0
-261 513 0
-261 -514 0
-261 -515 0
-261 -516 0
-261 -517 0
-261 -518 0
-261 519 0
-263 512 0
-263 513 0
-263 -514 0
-263 -515 0
-263 -516 0
-263 -517 0
-263 -518 0
-263 519 0
-265 -512 0
-265 -513 0
-265 514 0
-265 -515 0
-265 -516 0
-265 -517 0
-265 -518 0
-265 519 0
-267 512 0
-267 -513 0
-267 514 0
-267 -515 0
-267 -516 0
-267 -517 0
-267 -518 0
-267 519 0
-269 -512 0
-269 513 0
-269 514 0
-269 -515 0
-269 -516 0
-269 -517 0
-269 -518 0
-269 519 0
-271 512 0
-271 513 0
-271 514 0
-271 -515 0
-271 -516 0
-271 -517 0
-271 -518 0
-271 519 0
-273 -512 0
-273 -513 0
-273 -514 0
-273 515 0
-273 -516 0
-273 -517 0
-273 -518 0
-273 519 0
-275 512 0
-275 -513 0
-275 -514 0
-275 515 0
-275 -516 0
-275 -517 0
-275 -518 0
-275 519 0
-277 -512 0
-277 513 0
-277 -514 0
-277 515 0
-277 -516 0
-277 -517 0
-277 -518 0
-277 519 0
-279 512 0
-279 513 0
-279 -514 0
-279 515 0
-279 -516 0
-279 -517 0
-279 -518 0
-279 519 0
-281 -512 0
-281 -513 0
-281 514 0
-281 515 0
-281 -516 0
-281 -517 0
-281 -518 0
-281 519 0
-283 512 0
-283 -513 0
-283 514 0
-283 515 0
-283 -516 0
-283 -517 0
-283 -518 0
-283 519 0
-285 -512 0
-285 513 0
-285 514 0
-285 515 0
-285 -516 0
-285 -517 0
-285 -518 0
-285 519 0
-287 512 0
-287 513 0
-287 514 0
-287 515 0
-287 -516 0
-287 -517 0
-287 -518 0
-287 519 0
-289 -512 0
-289 -513 0
-289 -514 0
-289 -515 0
-289 516 0
-289 -517 0
-289 -518 0
-289 519 0
-291 512 0
-291 -513 0
-291 -514 0
-291 -515 0
-291 516 0
-291 -517 0
-291 -518 0
-291 519 0
-293 -512 0
-293 513 0
-293 -514 0
-293 -515 0
-293 516 0
-293 -517 0
-293 -518 0
-293 519 0
-295 512 0
-295 513 0
-295 -514 0
-295 -515 0
-295 516 0
-295 -517 0
-295 -518 0
-295 519 0
-297 -512 0
-297 -513 0
-297 514 0
-297 -515 0
-297 516 0
-297 -517 0
-297 -518 0
-297 519 0
-299 512 0
-299 -513 0
-299 514 0
-299 -515 0
-299 516 0
-299 -517 0
-299 -518 0
-299 519 0
-301 -512 0
-301 513 0
-301 514 0
-301 -515 0
-301 516 0
-301 -517 0
-301 -518 0
-301 519 0
-303 512 0
-303 513 0
-303 514 0
-303 -515 0
-303 516 0
-303 -517 0
-303 -518 0
-303 519 0
-305 -512 0
-305 -513 0
-305 -514 0
-305 515 0
-305 516 0
-305 -517 0
-305 -518 0
-305 519 0
-307 512 0
-307 -513 0
-307 -514 0
-307 515 0
-307 516 0
-307 -517 0
-307 -518 0
-307 519 0
-309 -512 0
-309 513 0
-309 -514 0
-309 515 0
-309 516 0
-309 -517 0
-309 -518 0
-309 519 0
-311 512 0
-311 513 0
-311 -514 0
-311 515 0
-311 516 0
-311 -517 0
-311 -518 0
-311 519 0
-313 -512 0
-313 -513 0
-313 514 0
-313 515 0
-313 516 0
-313 -517 0
-313 -518 0
-313 519 0
-315 512 0
-315 -513 0
-315 514 0
-315 515 0
-315 516 0
-315 -517 0
-315 -518 0
-315 519 0
-317 -512 0
-317 513 0
-317 514 0
-317 515 0
-317 516 0
-317 -517 0
-317 -518 0
-317 519 0
-319 512 0
-319 513 0
-319 514 0
-319 515 0
-319 516 0
-319 -517 0
-319 -518 0
-319 519 0
-321 -512 0
-321 -513 0
-321 -514 0
-321 -515 0
-321 -516 0
-321 517 0
-321 -518 0
-321 519 0
-323 512 0
-323 -513 0
-323 -514 0
-323 -515 0
-323 -516 0
-323 517 0
-323 -518 0
-323 519 0
-325 -512 0
-325 513 0
-325 -514 0
-325 -515 0
-325 -516 0
-325 517 0
-325 -518 0
-325 519 0
-327 512 0
-327 513 0
-327 -514 0
-327 -515 0
-327 -516 0
-327 517 0
-327 -518 0
-327 519 0
-329 -512 0
-329 -513 0
-329 514 0
-329 -515 0
-329 -516 0
-329 517 0
-329 -518 0
-329 519 0
-331 512 0
-331 -513 0
-331 514 0
-331 -515 0
-331 -516 0
-331 517 0
-331 -518 0
-331 519 0
-333 -512 0
-333 513 0
-333 514 0
-333 -515 0
-333 -516 0
-333 517 0
-333 -518 0
-333 519 0
-335 512 0
-335 513 0
-335 514 0
-335 -515 0
-335 -516 0
-335 517 0
-335 -518 0
-335 519 0
-337 -512 0
-337 -513 0
-337 -514 0
-337 515 0
-337 -516 0
-337 517 0
-337 -518 0
-337 519 0
-339 512 0
-339 -513 0
-339 -514 0
-339 515 0
-339 -516 0
-339 517 0
-339 -518 0
-339 519 0
-341 -512 0
-341 513 0
-341 -514 0
-341 515 0
-341 -516 0
-341 517 0
-341 -518 0
-341 519 0
-343 512 0
-343 513 0
-343 -514 0
-343 515 0
-343 -516 0
-343 517 0
-343 -518 0
-343 519 0
-345 -512 0
-345 -513 0
-345 514 0
-345 515 0
-345 -516 0
-345 517 0
-345 -518 0
-345 519 0
-347 512 0
-347 -513 0
-347 514 0
-347 515 0
-347 -516 0
-347 517 0
-347 -518 0
-347 519 0
-349 -512 0
-349 513 0
-349 514 0
-349 515 0
-349 -516 0
-349 517 0
-349 -518 0
-349 519 0
-351 512 0
-351 513 0
-351 514 0
-351 515 0
-351 -516 0
-351 517 0
-351 -518 0
-351 519 0
-353 -512 0
-353 -513 0
-353 -514 0
-353 -515 0
-353 516 0
-353 517 0
-353 -518 0
-353 519 0
-355 512 0
-355 -513 0
-355 -514 0
-355 -515 0
-355 516 0
-355 517 0
-355 -518 0
-355 519 0
-357 -512 0
-357 513 0
-357 -514 0
-357 -515 0
-357 516 0
-357 517 0
-357 -518 0
-357 519 0
-359 512 0
-359 513 0
-359 -514 0
-359 -515 0
-359 516 0
-359 517 0
-359 -518 0
-359 519 0
-361 -512 0
-361 -513 0
-361 514 0
-361 -515 0
-361 516 0
-361 517 0
-361 -518 0
-361 519 0
-363 512 0
-363 -513 0
-363 514 0
-363 -515 0
-363 516 0
-363 517 0
-363 -518 0
-363 519 0
-365 -512 0
-365 513 0
-365 514 0
-365 -515 0
-365 516 0
-365 517 0
-365 -518 0
-365 519 0
-367 512 0
-367 513 0
-367 514 0
-367 -515 0
-367 516 0
-367 517 0
-367 -518 0
-367 519 0
-369 -512 0
-369 -513 0
-369 -514 0
-369 515 0
-369 516 0
-369 517 0
-369 -518 0
-369 519 0
-371 512 0
-371 -513 0
-371 -514 0
-371 515 0
-371 516 0
-371 517 0
-371 -518 0
-371 519 0
-373 -512 0
-373 513 0
-373 -514 0
-373 515 0
-373 516 0
-373 517 0
-373 -518 0
-373 519 0
-375 512 0
-375 513 0
-375 -514 0
-375 515 0
-375 516 0
-375 517 0
-375 -518 0
-375 519 0
-377 -512 0
-377 -513 0
-377 514 0
-377 515 0
-377 516 0
-377 517 0
-377 -518 0
-377 519 0
-379 512 0
-379 -513 0
-379 514 0
-379 515 0
-379 516 0
-379 517 0
-379 -518 0
-379 519 0
-381 -512 0
-381 513 0
-381 514 0
-381 515 0
-381 516 0
-381 517 0
-381 -518 0
-381 519 0
-383 512 0
-383 513 0
-383 514 0
-383 515 0
-383 516 0
-383 517 0
-383 -518 0
-383 519 0
-385 -512 0
-385 -513 0
-385 -514 0
-385 -515 0
-385 -516 0
-385 -517 0
-385 518 0
-385 519 0
-387 512 0
-387 -513 0
-387 -514 0
-387 -515 0
-387 -516 0
-387 -517 0
-387 518 0
-387 519 0
-389 -512 0
-389 513 0
-389 -514 0
-389 -515 0
-389 -516 0
-389 -517 0
-389 518 0
-389 519 0
-391 512 0
-391 513 0
-391 -514 0
-391 -515 0
-391 -516 0
-391 -517 0
-391 518 0
-391 519 0
-393 -512 0
-393 -513 0
-393 514 0
-393 -515 0
-393 -516 0
-393 -517 0
-393 518 0
-393 519 0
-395 512 0
-395 -513 0
-395 514 0
-395 -515 0
-395 -516 0
-395 -517 0
-395 518 0
-395 519 0
-397 -512 0
-397 513 0
-397 514 0
-397 -515 0
-397 -516 0
-397 -517 0
-397 518 0
-397 519 0
-399 512 0
-399 513 0
-399 514 0
-399 -515 0
-399 -516 0
-399 -517 0
-399 518 0
-399 519 0
-401 -512 0
-401 -513 0
-401 -514 0
-401 515 0
-401 -516 0
-401 -517 0
-401 518 0
-401 519 0
-403 512 0
-403 -513 0
-403 -514 0
-403 515 0
-403 -516 0
-403 -517 0
-403 518 0
-403 519 0
-405 -512 0
-405 513 0
-405 -514 0
-405 515 0
-405 -516 0
-405 -517 0
-405 518 0
-405 519 0
-407 512 0
-407 513 0
-407 -514 0
-407 515 0
-407 -516 0
-407 -517 0
-407 518 0
-407 519 0
-409 -512 0
-409 -513 0
-409 514 0
-409 515 0
-409 -516 0
-409 -517 0
-409 518 0
-409 519 0
-411 512 0
-411 -513 0
-411 514 0
-411 515 0
-411 -516 0
-411 -517 0
-411 518 0
-411 519 0
-413 -512 0
-413 513 0
-413 514 0
-413 515 0
-413 -516 0
-413 -517 0
-413 518 0
-413 519 0
-415 512 0
-415 513 0
-415 514 0
-415 515 0
-415 -516 0
-415 -517 0
-415 518 0
-415 519 0
-417 -512 0
-417 -513 0
-417 -514 0
-417 -515 0
-417 516 0
-417 -517 0
-417 518 0
-417 519 0
-419 512 0
-419 -513 0
-419 -514 0
-419 -515 0
-419 516 0
-419 -517 0
-419 518 0
-419 519 0
-421 -512 0
-421 513 0
-421 -514 0
-421 -515 0
-421 516 0
-421 -517 0
-421 518 0
-421 519 0
-423 512 0
-423 513 0
-423 -514 0
-423 -515 0
-423 516 0
-423 -517 0
-423 518 0
-423 519 0
-425 -512 0
-425 -513 0
-425 514 0
-425 -515 0
-425 516 0
-425 -517 0
-425 518 0
-425 519 0
-427 512 0
-427 -513 0
-427 514 0
-427 -515 0
-427 516 0
-427 -517 0
-427 518 0
-427 519 0
-429 -512 0
-429 513 0
-429 514 0
-429 -515 0
-429 516 0
-429 -517 0
-429 518 0
-429 519 0
-431 512 0
-431 513 0
-431 514 0
-431 -515 0
-431 516 0
-431 -517 0
-431 518 0
-431 519 0
-433 -512 0
-433 -513 0
-433 -514 0
-433 515 0
-433 516 0
-433 -517 0
-433 518 0
-433 519 0
-435 512 0
-435 -513 0
-435 -514 0
-435 515 0
-435 516 0
-435 -517 0
-435 518 0
-435 519 0
-437 -512 0
-437 513 0
-437 -514 0
-437 515 0
-437 516 0
-437 -517 0
-437 518 0
-437 519 0
-439 512 0
-439 513 0
-439 -514 0
-439 515 0
-439 516 0
-439 -517 0
-439 518 0
-439 519 0
-441 -512 0
-441 -513 0
-441 514 0
-441 515 0
-441 516 0
-441 -517 0
-441 518 0
-441 519 0
-443 512 0
-443 -513 0
-443 514 0
-443 515 0
-443 516 0
-443 -517 0
-443 518 0
-443 519 0
-445 -512 0
-445 513 0
-445 514 0
-445 515 0
-445 516 0
-445 -517 0
-445 518 0
-445 519 0
-447 512 0
-447 513 0
-447 514 0
-447 515 0
-447 516 0
-447 -517 0
-447 518 0
-447 519 0
-449 -512 0
-449 -513 0
-449 -514 0
-449 -515 0
-449 -516 0
-449 517 0
-449 518 0
-449 519 0
-451 512 0
-451 -513 0
-451 -514 0
-451 -515 0
-451 -516 0
-451 517 0
-451 518 0
-451 519 0
-453 -512 0
-453 513 0
-453 -514 0
-453 -515 0
-453 -516 0
-453 517 0
-453 518 0
-453 519 0
-455 512 0
-455 513 0
-455 -514 0
-455 -515 0
-455 -516 0
-455 517 0
-455 518 0
-455 519 0
-457 -512 0
-457 -513 0
-457 514 0
-457 -515 0
-457 -516 0
-457 517 0
-457 518 0
-457 519 0
-459 512 0
-459 -513 0
-459 514 0
-459 -515 0
-459 -516 0
-459 517 0
-459 518 0
-459 519 0
-461 -512 0
-461 513 0
-461 514 0
-461 -515 0
-461 -516 0
-461 517 0
-461 518 0
-461 519 0
-463 512 0
-463 513 0
-463 514 0
-463 -515 0
-463 -516 0
-463 517 0
-463 518 0
-463 519 0
-465 -512 0
-465 -513 0
-465 -514 0
-465 515 0
-465 -516 0
-465 517 0
-465 518 0
-465 519 0
-467 512 0
-467 -513 0
-467 -514 0
-467 515 0
-467 -516 0
-467 517 0
-467 518 0
-467 519 0
-469 -512 0
-469 513 0
-469 -514 0
-469 515 0
-469 -516 0
-469 517 0
-469 518 0
-469 519 0
-471 512 0
-471 513 0
-471 -514 0
-471 515 0
-471 -516 0
-471 517 0
-471 518 0
-471 519 0
-473 -512 0
-473 -513 0
-473 514 0
-473 515 0
-473 -516 0
-473 517 0
-473 518 0
-473 519 0
-475 512 0
-475 -513 0
-475 514 0
-475 515 0
-475 -516 0
-475 517 0
-475 518 0
-475 519 0
-477 -512 0
-477 513 0
-477 514 0
-477 515 0
-477 -516 0
-477 517 0
-477 518 0
-477 519 0
-479 512 0
-479 513 0
-479 514 0
-479 515 0
-479 -516 0
-479 517 0
-479 518 0
-479 519 0
-481 -512 0
-481 -513 0
-481 -514 0
-481 -515 0
-481 516 0
-481 517 0
-481 518 0
-481 519 0
-483 512 0
-483 -513 0
-483 -514 0
-483 -515 0
-483 516 0
-483 517 0
-483 518 0
-483 519 0
-485 -512 0
-485 513 0
-485 -514 0
-485 -515 0
-485 516 0
-485 517 0
-485 518 0
-485 519 0
-487 512 0
-487 513 0
-487 -514 0
-487 -515 0
-487 516 0
-487 517 0
-487 518 0
-487 519 0
-489 -512 0
-489 -513 0
-489 514 0
-489 -515 0
-489 516 0
-489 517 0
-489 518 0
-489 519 0
-491 512 0
-491 -513 0
-491 514 0
-491 -515 0
-491 516 0
-491 517 0
-491 518 0
-491 519 0
-493 -512 0
-493 513 0
-493 514 0
-493 -515 0
-493 516 0
-493 517 0
-493 518 0
-493 519 0
-495 512 0
-495 513 0
-495 514 0
-495 -515 0
-495 516 0
-495 517 0
-495 518 0
-495 519 0
-497 -512 0
-497 -513 0
-497 -514 0
-497 515 0
-497 516 0
-497 517 0
-497 518 0
-497 519 0
-499 512 0
-499 -513 0
-499 -514 0
-499 515 0
-499 516 0
-499 517 0
-499 518 0
-499 519 0
-501 -512 0
-501 513 0
-501 -514 0
-501 515 0
-501 516 0
-501 517 0
-501 518 0
-501 519 0
-503 512 0
-503 513 0
-503 -514 0
-503 515 0
-503 516 0
-503 517 0
-503 518 0
-503 519 0
-505 -512 0
-505 -513 0
-505 514 0
-505 515 0
-505 516 0
-505 517 0
-505 518 0
-505 519 0
-507 512 0
-507 -513 0
-507 514 0
-507 515 0
-507 516 0
-507 517 0
-507 518 0
-507 519 0
-509 -512 0
-509 513 0
-509 514 0
-509 515 0
-509 516 0
-509 517 0
-509 518 0
-509 519 0
-511 512 0
-511 513 0
-511 514 0
-511 515 0
-511 516 0
-511 517 0
-511 518 0
-511 519 0
2 3 6 7 10 11 14 15 18 19 22 23 26 27 30 31 34 35 38 39 42 43 46 47 50 51 54 55 58 59 62 63 66 67 70 71 74 75 78 79 82 83 86 87 90 91 94 95 98 99 102 103 106 107 110 111 114 115 118 119 122 123 126 127 130 131 134 135 138 139 142 143 146 147 150 151 154 155 158 159 162 163 166 167 170 171 174 175 178 179 182 183 186 187 190 191 194 195 198 199 202 203 206 207 210 211 214 215 218 219 222 223 226 227 230 231 234 235 238 239 242 243 246 247 250 251 254 255 258 259 262 263 266 267 270 271 274 275 278 279 282 283 286 287 290 291 294 295 298 299 302 303 306 307 310 311 314 315 318 319 322 323 326 327 330 331 334 335 338 339 342 343 346 347 350 351 354 355 358 359 362 363 366 367 370 371 374 375 378 379 382 383 386 387 390 391 394 395 398 399 402 403 406 407 410 411 414 415 418 419 422 423 426 427 430 431 434 435 438 439 442 443 446 447 450 451 454 455 458 459 462 463 466 467 470 471 474 475 478 479 482 483 486 487 490 491 494 495 498 499 502 503 506 507 510 511 0
-2 -520 0
-2 -521 0
-2 -522 0
-2 -523 0
-2 -524 0
-2 -525 0
-2 -526 0
-2 -527 0
-3 520 0
-3 -521 0
-3 -522 0
-3 -523 0
-3 -524 0
-3 -525 0
-3 -526 0
-3 -527 0
-6 -520 0
-6 521 0
-6 -522 0
-6 -523 0
-6 -524 0
-6 -525 0
-6 -526 0
-6 -527 0
-7 520 0
-7 521 0
-7 -522 0
-7 -523 0
-7 -524 0
-7 -525 0
-7 -526 0
-7 -527 0
-10 -520 0
-10 -521 0
-10 522 0
-10 -523 0
-10 -524 0
-10 -525 0
-10 -526 0
-10 -527 0
-11 520 0
-11 -521 0
-11 522 0
-11 -523 0
-11 -524 0
-11 -525 0
-11 -526 0
-11 -527 0
-14 -520 0
-14 521 0
-14 522 0
-14 -523 0
-14 -524 0
-14 -525 0
-14 -526 0
-14 -527 0
-15 520 0
-15 521 0
-15 522 0
-15 -523 0
-15 -524 0
-15 -525 0
-15 -526 0
-15 -527 0
-18 -520 0
-18 -521 0
-18 -522 0
-18 523 0
-18 -524 0
-18 -525 0
-18 -526 0
-18 -527 0
-19 520 0
-19 -521 0
-19 -522 0
-19 523 0
-19 -524 0
-19 -525 0
-19 -526 0
-19 -527 0
-22 -520 0
-22 521 0
-22 -522 0
-22 523 0
-22 -524 0
-22 -525 0
-22 -526 0
-22 -527 0
-23 520 0
-23 521 0
-23 -522 0
-23 523 0
-23 -524 0
-23 -525 0
-23 -526 0
-23 -527 0
-26 -520 0
-26 -521 0
-26 522 0
-26 523 0
-26 -524 0
-26 -525 0
-26 -526 0
-26 -527 0
-27 520 0
-27 -521 0
-27 522 0
-27 523 0
-27 -524 0
-27 -525 0
-27 -526 0
-27 -527 0
-30 -520 0
-30 521 0
-30 522 0
-30 523 0
-30 -524 0
-30 -525 0
-30 -526 0
-30 -527 0
-31 520 0
-31 521 0
-31 522 0
-31 523 0
-31 -524 0
-31 -525 0
-31 -526 0
-31 -527 0
-34 -520 0
-34 -521 0
-34 -522 0
-34 -523 0
-34 524 0
-34 -525 0
-34 -526 0
-34 -527 0
-35 520 0
-35 -521 0
-35 -522 0
-35 -523 0
-35 524 0
-35 -525 0
-35 -526 0
-35 -527 0
-38 -520 0
-38 521 0
-38 -522 0
-38 -523 0
-38 524 0
-38 -525 0
-38 -526 0
-38 -527 0
-39 520 0
-39 521 0
-39 -522 0
-39 -523 0
-39 524 0
-39 -525 0
-39 -526 0
-39 -527 0
-42 -520 0
-42 -521 0
-42 522 0
-42 -523 0
-42 524 0
-42 -525 0
-42 -526 0
-42 -527 0
-43 520 0
-43 -521 0
-43 522 0
-43 -523 0
-43 524 0
-43 -525 0
-43 -526 0
-43 -527 0
-46 -520 0
-46 521 0
-46 522 0
-46 -523 0
-46 524 0
-46 -525 0
-46 -526 0
-46 -527 0
-47 520 0
-47 521 0
-47 522 0
-47 -523 0
-47 524 0
-47 -525 0
-47 -526 0
-47 -527 0
-50 -520 0
-50 -521 0
-50 -522 0
-50 523 0
-50 524 0
-50 -525 0
-50 -526 0
-50 -527 0
-51 520 0
-51 -521 0
-51 -522 0
-51 523 0
-51 524 0
-51 -525 0
-51 -526 0
-51 -527 0
-54 -520 0
-54 521 0
-54 -522 0
-54 523 0
-54 524 0
-54 -525 0
-54 -526 0
-54 -527 0
-55 520 0
-55 521 0
-55 -522 0
-55 523 0
-55 524 0
-55 -525 0
-55 -526 0
-55 -527 0
-58 -520 0
-58 -521 0
-58 522 0
-58 523 0
-58 524 0
-58 -525 0
-58 -526 0
-58 -527 0
-59 520 0
-59 -521 0
-59 522 0
-59 523 0
-59 524 0
-59 -525 0
-59 -526 0
-59 -527 0
-62 -520 0
-62 521 0
-62 522 0
-62 523 0
-62 524 0
-62 -525 0
-62 -526 0
-62 -527 0
-63 520 0
-63 521 0
-63 522 0
-63 523 0
-63 524 0
-63 -525 0
-63 -526 0
-63 -527 0
-66 -520 0
-66 -521 0
-66 -522 0
-66 -523 0
-66 -524 0
-66 525 0
-66 -526 0
-66 -527 0
-67 520 0
-67 -521 0
-67 -522 0
-67 -523 0
-67 -524 0
-67 525 0
-67 -526 0
-67 -527 0
-70 -520 0
-70 521 0
-70 -522 0
-70 -523 0
-70 -524 0
-70 525 0
-70 -526 0
-70 -527 0
-71 520 0
-71 521 0
-71 -522 0
-71 -523 0
-71 -524 0
-71 525 0
-71 -526 0
-71 -527 0
-74 -520 0
-74 -521 0
-74 522 0
-74 -523 0
-74 -524 0
-74 525 0
-74 -526 0
-74 -527 0
-75 520 0
-75 -521 0
-75 522 0
-75 -523 0
-75 -524 0
-75 525 0
-75 -526 0
-75 -527 0
-78 -520 0
-78 521 0
-78 522 0
-78 -523 0
-78 -524 0
-78 525 0
-78 -526 0
-78 -527 0
-79 520 0
-79 521 0
-79 522 0
-79 -523 0
-79 -524 0
-79 525 0
-79 -526 0
-79 -527 0
-82 -520 0
-82 -521 0
-82 -522 0
-82 523 0
-82 -524 0
-82 525 0
-82 -526 0
-82 -527 0
-83 520 0
-83 -521 0
-83 -522 0
-83 523 0
-83 -524 0
-83 525 0
-83 -526 0
-83 -527 0
-86 -520 0
-86 521 0
-86 -522 0
-86 523 0
-86 -524 0
-86 525 0
-86 -526 0
-86 -527 0
-87 520 0
-87 521 0
-87 -522 0
-87 523 0
-87 -524 0
-87 525 0
-87 -526 0
-87 -527 0
-90 -520 0
-90 -521 0
-90 522 0
-90 523 0
-90 -524 0
-90 525 0
-90 -526 0
-90 -527 0
-91 520 0
-91 -521 0
-91 522 0
-91 523 0
-91 -524 0
-91 525 0
-91 -526 0
-91 -527 0
-94 -520 0
-94 521 0
-94 522 0
-94 523 0
-94 -524 0
-94 525 0
-94 -526 0
-94 -527 0
-95 520 0
-95 521 0
-95 522 0
-95 523 0
-95 -524 0
-95 525 0
-95 -526 0
-95 -527 0
-98 -520 0
-98 -521 0
-98 -522 0
-98 -523 0
-98 524 0
-98 525 0
-98 -526 0
-98 -527 0
-99 520 0
-99 -521 0
-99 -522 0
-99 -523 0
-99 524 0
-99 525 0
-99 -526 0
-99 -527 0
-102 -520 0
-102 521 0
-102 -522 0
-102 -523 0
-102 524 0
-102 525 0
-102 -526 0
-102 -527 0
-103 520 0
-103 521 0
-103 -522 0
-103 -523 0
-103 524 0
-103 525 0
-103 -526 0
-103 -527 0
-106 -520 0
-106 -521 0
-106 522 0
-106 -523 0
-106 524 0
-106 525 0
-106 -526 0
-106 -527 0
-107 520 0
-107 -521 0
-107 522 0
-107 -523 0
-107 524 0
-107 525 0
-107 -526 0
-107 -527 0
-110 -520 0
-110 521 0
-110 522 0
-110 -523 0
-110 524 0
-110 525 0
-110 -526 0
-110 -527 0
-111 520 0
-111 521 0
-111 522 0
-111 -523 0
-111 524 0
-111 525 0
-111 -526 0
-111 -527 0
-114 -520 0
-114 -521 0
-114 -522 0
-114 523 0
-114 524 0
-114 525 0
-114 -526 0
-114 -527 0
-115 520 0
-115 -521 0
-115 -522 0
-115 523 0
-115 524 0
-115 525 0
-115 -526 0
-115 -527 0
-118 -520 0
-118 521 0
-118 -522 0
-118 523 0
-118 524 0
-118 525 0
-118 -526 0
-118 -527 0
-119 520 0
-119 521 0
-119 -522 0
-119 523 0
-119 524 0
-119 525 0
-119 -526 0
-119 -527 0
-122 -520 0
-122 -521 0
-122 522 0
-122 523 0
-122 524 0
-122 525 0
-122 -526 0
-122 -527 0
-123 520 0
-123 -521 0
-123 522 0
-123 523 0
-123 524 0
-123 525 0
-123 -526 0
-123 -527 0
-126 -520 0
-126 521 0
-126 522 0
-126 523 0
-126 524 0
-126 525 0
-126 -526 0
-126 -527 0
-127 520 0
-127 521 0
-127 522 0
-127 523 0
-127 524 0
-127 525 0
-127 -526 0
-127 -527 0
-130 -520 0
-130 -521 0
-130 -522 0
-130 -523 0
-130 -524 0
-130 -525 0
-130 526 0
-130 -527 0
-131 520 0
-131 -521 0
-131 -522 0
-131 -523 0
-131 -524 0
-131 -525 0
-131 526 0
-131 -527 0
-134 -520 0
-134 521 0
-134 -522 0
-134 -523 0
-134 -524 0
-134 -525 0
-134 526 0
-134 -527 0
-135 520 0
-135 521 0
-135 -522 0
-135 -523 0
-135 -524 0
-135 -525 0
-135 526 0
-135 -527 0
-138 -520 0
-138 -521 0
-138 522 0
-138 -523 0
-138 -524 0
-138 -525 0
-138 526 0
-138 -527 0
-139 520 0
-139 -521 0
-139 522 0
-139 -523 0
-139 -524 0
-139 -525 0
-139 526 0
-139 -527 0
-142 -520 0
-142 521 0
-142 522 0
-142 -523 0
-142 -524 0
-142 -525 0
-142 526 0
-142 -527 0
-143 520 0
-143 521 0
-143 522 0
-143 -523 0
-143 -524 0
-143 -525 0
-143 526 0
-143 -527 0
-146 -520 0
-146 -521 0
-146 -522 0
-146 523 0
-146 -524 0
-146 -525 0
-146 526 0
-146 -527 0
-147 520 0
-147 -521 0
-147 -522 0
-147 523 0
-147 -524 0
-147 -525 0
-147 526 0
-147 -527 0
-150 -520 0
-150 521 0
-150 -522 0
-150 523 0
-150 -524 0
-150 -525 0
-150 526 0
-150 -527 0
-151 520 0
-151 521 0
-151 -522 0
-151 523 0
-151 -524 0
-151 -525 0
-151 526 0
-151 -527 0
-154 -520 0
-154 -521 0
-154 522 0
-154 523 0
-154 -524 0
-154 -525 0
-154 526 0
-154 -527 0
-155 520 0
-155 -521 0
-155 522 0
-155 523 0
-155 -524 0
-155 -525 0
-155 526 0
-155 -527 0
-158 -520 0
-158 521 0
-158 522 0
-158 523 0
-158 -524 0
-158 -525 0
-158 526 0
-158 -527 0
-159 520 0
-159 521 0
-159 522 0
-159 523 0
-159 -524 0
-159 -525 0
-159 526 0
-159 -527 0
-162 -520 0
-162 -521 0
-162 -522 0
-162 -523 0
-162 524 0
-162 -525 0
-162 526 0
-162 -527 0
-163 520 0
-163 -521 0
-163 -522 0
-163 -523 0
-163 524 0
-163 -525 0
-163 526 0
-163 -527 0
-166 -520 0
-166 521 0
-166 -522 0
-166 -523 0
-166 524 0
-166 -525 0
-166 526 0
-166 -527 0
-167 520 0
-167 521 0
-167 -522 0
-167 -523 0
-167 524 0
-167 -525 0
-167 526 0
-167 -527 0
-170 -520 0
-170 -521 0
-170 522 0
-170 -523 0
-170 524 0
-170 -525 0
-170 526 0
-170 -527 0
-171 520 0
-171 -521 0
-171 522 0
-171 -523 0
-171 524 0
-171 -525 0
-171 526 0
-171 -527 0
-174 -520 0
-174 521 0
-174 522 0
-174 -523 0
-174 524 0
-174 -525 0
-174 526 0
-174 -527 0
-175 520 0
-175 521 0
-175 522 0
-175 -523 0
-175 524 0
-175 -525 0
-175 526 0
-175 -527 0
-178 -520 0
-178 -521 0
-178 -522 0
-178 523 0
-178 524 0
-178 -525 0
-178 526 0
-178 -527 0
-179 520 0
-179 -521 0
-179 -522 0
-179 523 0
-179 524 0
-179 -525 0
-179 526 0
-179 -527 0
-182 -520 0
-182 521 0
-182 -522 0
-182 523 0
-182 524 0
-182 -525 0
-182 526 0
-182 -527 0
-183 520 0
-183 521 0
-183 -522 0
-183 523 0
-183 524 0
-183 -525 0
-183 526 0
-183 -527 0
-186 -520 0
-186 -521 0
-186 522 0
-186 523 0
-186 524 0
-186 -525 0
-186 526 0
-186 -527 0
-187 520 0
-187 -521 0
-187 522 0
-187 523 0
-187 524 0
-187 -525 0
-187 526 0
-187 -527 0
-190 -520 0
-190 521 0
-190 522 0
-190 523 0
-190 524 0
-190 -525 0
-190 526 0
-190 -527 0
-191 520 0
-191 521 0
-191 522 0
-191 523 0
-191 524 0
-191 -525 0
-191 526 0
-191 -527 0
-194 -520 0
-194 -521 0
-194 -522 0
-194 -523 0
-194 -524 0
-194 525 0
-194 526 0
-194 -527 0
-195 520 0
-195 -521 0
-195 -522 0
-195 -523 0
-195 -524 0
-195 525 0
-195 526 0
-195 -527 0
-198 -520 0
-198 521 0
-198 -522 0
-198 -523 0
-198 -524 0
-198 525 0
-198 526 0
-198 -527 0
-199 520 0
-199 521 0
-199 -522 0
-199 -523 0
-199 -524 0
-199 525 0
-199 526 0
-199 -527 0
-202 -520 0
-202 -521 0
-202 522 0
-202 -523 0
-202 -524 0
-202 525 0
-202 526 0
-202 -527 0
-203 520 0
-203 -521 0
-203 522 0
-203 -523 0
-203 -524 0
-203 525 0
-203 526 0
-203 -527 0
-206 -520 0
-206 521 0
-206 522 0
-206 -523 0
-206 -524 0
-206 525 0
-206 526 0
-206 -527 0
-207 520 0
-207 521 0
-207 522 0
-207 -523 0
-207 -524 0
-207 525 0
-207 526 0
-207 -527 0
-210 -520 0
-210 -521 0
-210 -522 0
-210 523 0
-210 -524 0
-210 525 0
-210 526 0
-210 -527 0
-211 520 0
-211 -521 0
-211 -522 0
-211 523 0
-211 -524 0
-211 525 0
-211 526 0
-211 -527 0
-214 -520 0
-214 521 0
-214 -522 0
-214 523 0
-214 -524 0
-214 525 0
-214 526 0
-214 -527 0
-215 520 0
-215 521 0
-215 -522 0
-215 523 0
-215 -524 0
-215 525 0
-215 526 0
-215 -527 0
-218 -520 0
-218 -521 0
-218 522 0
-218 523 0
-218 -524 0
-218 525 0
-218 526 0
-218 -527 0
-219 520 0
-219 -521 0
-219 522 0
-219 523 0
-219 -524 0
-219 525 0
-219 526 0
-219 -527 0
-222 -520 0
-222 521 0
-222 522 0
-222 523 0
-222 -524 0
-222 525 0
-222 526 0
-222 -527 0
-223 520 0
-223 521 0
-223 522 0
-223 523 0
-223 -524 0
-223 525 0
-223 526 0
-223 -527 0
-226 -520 0
-226 -521 0
-226 -522 0
-226 -523 0
-226 524 0
-226 525 0
-226 526 0
-226 -527 0
-227 520 0
-227 -521 0
-227 -522 0
-227 -523 0
-227 524 0
-227 525 0
-227 526 0
-227 -527 0
-230 -520 0
-230 521 0
-230 -522 0
-230 -523 0
-230 524 0
-230 525 0
-230 526 0
-230 -527 0
-231 520 0
-231 521 0
-231 -522 0
-231 -523 0
-231 524 0
-231 525 0
-231 526 0
-231 -527 0
-234 -520 0
-234 -521 0
-234 522 0
-234 -523 0
-234 524 0
-234 525 0
-234 526 0
-234 -527 0
-235 520 0
-235 -521 0
-235 522 0
-235 -523 0
-235 524 0
-235 525 0
-235 526 0
-235 -527 0
-238 -520 0
-238 521 0
-238 522 0
-238 -523 0
-238 524 0
-238 525 0
-238 526 0
-238 -527 0
-239 520 0
-239 521 0
-239 522 0
-239 -523 0
-239 524 0
-239 525 0
-239 526 0
-239 -527 0
-242 -520 0
-242 -521 0
-242 -522 0
-242 523 0
-242 524 0
-242 525 0
-242 526 0
-242 -527 0
-243 520 0
-243 -521 0
-243 -522 0
-243 523 0
-243 524 0
-243 525 0
-243 526 0
-243 -527 0
-246 -520 0
-246 521 0
-246 -522 0
-246 523 0
-246 524 0
-246 525 0
-246 526 0
-246 -527 0
-247 520 0
-247 521 0
-247 -522 0
-247 523 0
-247 524 0
-247 525 0
-247 526 0
-247 -527 0
-250 -520 0
-250 -521 0
-250 522 0
-250 523 0
-250 524 0
-250 525 0
-250 526 0
-250 -527 0
-251 520 0
-251 -521 0
-251 522 0
-251 523 0
-251 524 0
-251 525 0
-251 526 0
-251 -527 0
-254 -520 0
-254 521 0
-254 522 0
-254 523 0
-254 524 0
-254 525 0
-254 526 0
-254 -527 0
-255 520 0
-255 521 0
-255 522 0
-255 523 0
-255 524 0
-255 525 0
-255 526 0
-255 -527 0
-258 -520 0
-258 -521 0
-258 -522 0
-258 -523 0
-258 -524 0
-258 -525 0
-258 -526 0
-258 527 0
-259 520 0
-259 -521 0
-259 -522 0
-259 -523 0
-259 -524 0
-259 -525 0
-259 -526 0
-259 527 0
-262 -520 0
-262 521 0
-262 -522 0
-262 -523 0
-262 -524 0
-262 -525 0
-262 -526 0
-262 527 0
-263 520 0
-263 521 0
-263 -522 0
-263 -523 0
-263 -524 0
-263 -525 0
-263 -526 0
-263 527 0
-266 -520 0
-266 -521 0
-266 522 0
-266 -523 0
-266 -524 0
-266 -525 0
-266 -526 0
-266 527 0
-267 520 0
-267 -521 0
-267 522 0
-267 -523 0
-267 -524 0
-267 -525 0
-267 -526 0
-267 527 0
-270 -520 0
-270 521 0
-270 522 0
-270 -523 0
-270 -524 0
-270 -525 0
-270 -526 0
-270 527 0
-271 520 0
-271 521 0
-271 522 0
-271 -523 0
-271 -524 0
-271 -525 0
-271 -526 0
-271 527 0
-274 -520 0
-274 -521 0
-274 -522 0
-274 523 0
-274 -524 0
-274 -525 0
-274 -526 0
-274 527 0
-275 520 0
-275 -521 0
-275 -522 0
-275 523 0
-275 -524 0
-275 -525 0
-275 -526 0
-275 527 0
-278 -520 0
-278 521 0
-278 -522 0
-278 523 0
-278 -524 0
-278 -525 0
-278 -526 0
-278 527 0
-279 520 0
-279 521 0
-279 -522 0
-279 523 0
-279 -524 0
-279 -525 0
-279 -526 0
-279 527 0
-282 -520 0
-282 -521 0
-282 522 0
-282 523 0
-282 -524 0
-282 -525 0
-282 -526 0
-282 527 0
-283 520 0
-283 -521 0
-283 522 0
-283 523 0
-283 -524 0
-283 -525 0
-283 -526 0
-283 527 0
-286 -520 0
-286 521 0
-286 522 0
-286 523 0
-286 -524 0
-286 -525 0
-286 -526 0
-286 527 0
-287 520 0
-287 521 0
-287 522 0
-287 523 0
-287 -524 0
-287 -525 0
-287 -526 0
-287 527 0
-290 -520 0
-290 -521 0
-290 -522 0
-290 -523 0
-290 524 0
-290 -525 0
-290 -526 0
-290 527 0
-291 520 0
-291 -521 0
-291 -522 0
-291 -523 0
-291 524 0
-291 -525 0
-291 -526 0
-291 527 0
-294 -520 0
-294 521 0
-294 -522 0
-294 -523 0
-294 524 0
-294 -525 0
-294 -526 0
-294 527 0
-295 520 0
-295 521 0
-295 -522 0
-295 -523 0
-295 524 0
-295 -525 0
-295 -526 0
-295 527 0
-298 -520 0
-298 -521 0
-298 522 0
-298 -523 0
-298 524 0
-298 -525 0
-298 -526 0
-298 527 0
-299 520 0
-299 -521 0
-299 522 0
-299 -523 0
-299 524 0
-299 -525 0
-299 -526 0
-299 527 0
-302 -520 0
-302 521 0
-302 522 0
-302 -523 0
-302 524 0
-302 -525 0
-302 -526 0
-302 527 0
-303 520 0
-303 521 0
-303 522 0
-303 -523 0
-303 524 0
-303 -525 0
-303 -526 0
-303 527 0
-306 -520 0
-306 -521 0
-306 -522 0
-306 523 0
-306 524 0
-306 -525 0
-306 -526 0
-306 527 0
-307 520 0
-307 -521 0
-307 -522 0
-307 523 0
-307 524 0
-307 -525 0
-307 -526 0
-307 527 0
-310 -520 0
-310 521 0
-310 -522 0
-310 523 0
-310 524 0
-310 -525 0
-310 -526 0
-310 527 0
-311 520 0
-311 521 0
-311 -522 0
-311 523 0
-311 524 0
-311 -525 0
-311 -526 0
-311 527 0
-314 -520 0
-314 -521 0
-314 522 0
-314 523 0
-314 524 0
-314 -525 0
-314 -526 0
-314 527 0
-315 520 0
-315 -521 0
-315 522 0
-315 523 0
-315 524 0
-315 -525 0
-315 -526 0
-315 527 0
-318 -520 0
-318 521 0
-318 522 0
-318 523 0
-318 524 0
-318 -525 0
-318 -526 0
-318 527 0
-319 520 0
-319 521 0
-319 522 0
-319 523 0
-319 524 0
-319 -525 0
-319 -526 0
-319 527 0
-322 -520 0
-322 -521 0
-322 -522 0
-322 -523 0
-322 -524 0
-322 525 0
-322 -526 0
-322 527 0
-323 520 0
-323 -521 0
-323 -522 0
-323 -523 0
-323 -524 0
-323 525 0
-323 -526 0
-323 527 0
-326 -520 0
-326 521 0
-326 -522 0
-326 -523 0
-326 -524 0
-326 525 0
-326 -526 0
-326 527 0
-327 520 0
-327 521 0
-327 -522 0
-327 -523 0
-327 -524 0
-327 525 0
-327 -526 0
-327 527 0
-330 -520 0
-330 -521 0
-330 522 0
-330 -523 0
-330 -524 0
-330 525 0
-330 -526 0
-330 527 0
-331 520 0
-331 -521 0
-331 522 0
-331 -523 0
-331 -524 0
-331 525 0
-331 -526 0
-331 527 0
-334 -520 0
-334 521 0
-334 522 0
-334 -523 0
-334 -524 0
-334 525 0
-334 -526 0
-334 527 0
-335 520 0
-335 521 0
-335 522 0
-335 -523 0
-335 -524 0
-335 525 0
-335 -526 0
-335 527 0
-338 -520 0
-338 -521 0
-338 -522 0
-338 523 0
-338 -524 0
-338 525 0
-338 -526 0
-338 527 0
-339 520 0
-339 -521 0
-339 -522 0
-339 523 0
-339 -524 0
-339 525 0
-339 -526 0
-339 527 0
-342 -520 0
-342 521 0
-342 -522 0
-342 523 0
-342 -524 0
-342 525 0
-342 -526 0
-342 527 0
-343 520 0
-343 521 0
-343 -522 0
-343 523 0
-343 -524 0
-343 525 0
-343 -526 0
-343 527 0
-346 -520 0
-346 -521 0
-346 522 0
-346 523 0
-346 -524 0
-346 525 0
-346 -526 0
-346 527 0
-347 520 0
-347 -521 0
-347 522 0
-347 523 0
-347 -524 0
-347 525 0
-347 -526 0
-347 527 0
-350 -520 0
-350 521 0
-350 522 0
-350 523 0
-350 -524 0
-350 525 0
-350 -526 0
-350 527 0
-351 520 0
-351 521 0
-351 522 0
-351 523 0
-351 -524 0
-351 525 0
-351 -526 0
-351 527 0
-354 -520 0
-354 -521 0
-354 -522 0
-354 -523 0
-354 524 0
-354 525 0
-354 -526 0
-354 527 0
-355 520 0
-355 -521 0
-355 -522 0
-355 -523 0
-355 524 0
-355 525 0
-355 -526 0
-355 527 0
-358 -520 0
-358 521 0
-358 -522 0
-358 -523 0
-358 524 0
-358 525 0
-358 -526 0
-358 527 0
-359 520 0
-359 521 0
-359 -522 0
-359 -523 0
-359 524 0
-359 525 0
-359 -526 0
-359 527 0
-362 -520 0
-362 -521 0
-362 522 0
-362 -523 0
-362 524 0
-362 525 0
-362 -526 0
-362 527 0
-363 520 0
-363 -521 0
-363 522 0
-363 -523 0
-363 524 0
-363 525 0
-363 -526 0
-363 527 0
-366 -520 0
-366 521 0
-366 522 0
-366 -523 0
-366 524 0
-366 525 0
-366 -526 0
-366 527 0
-367 520 0
-367 521 0
-367 522 0
-367 -523 0
-367 524 0
-367 525 0
-367 -526 0
-367 527 0
-370 -520 0
-370 -521 0
-370 -522 0
-370 523 0
-370 524 0
-370 525 0
-370 -526 0
-370 527 0
-371 520 0
-371 -521 0
-371 -522 0
-371 523 0
-371 524 0
-371 525 0
-371 -526 0
-371 527 0
-374 -520 0
-374 521 0
-374 -522 0
-374 523 0
-374 524 0
-374 525 0
-374 -526 0
-374 527 0
-375 520 0
-375 521 0
-375 -522 0
-375 523 0
-375 524 0
-375 525 0
-375 -526 0
-375 527 0
-378 -520 0
-378 -521 0
-378 522 0
-378 523 0
-378 524 0
-378 525 0
-378 -526 0
-378 527 0
-379 520 0
-379 -521 0
-379 522 0
-379 523 0
-379 524 0
-379 525 0
-379 -526 0
-379 527 0
-382 -520 0
-382 521 0
-382 522 0
-382 523 0
-382 524 0
-382 525 0
-382 -526 0
-382 527 0
-383 520 0
-383 521 0
-383 522 0
-383 523 0
-383 524 0
-383 525 0
-383 -526 0
-383 527 0
-386 -520 0
-386 -521 0
-386 -522 0
-386 -523 0
-386 -524 0
-386 -525 0
-386 526 0
-386 527 0
-387 520 0
-387 -521 0
-387 -522 0
-387 -523 0
-387 -524 0
-387 -525 0
-387 526 0
-387 527 0
-390 -520 0
-390 521 0
-390 -522 0
-390 -523 0
-390 -524 0
-390 -525 0
-390 526 0
-390 527 0
-391 520 0
-391 521 0
-391 -522 0
-391 -523 0
-391 -524 0
-391 -525 0
-391 526 0
-391 527 0
-394 -520 0
-394 -521 0
-394 522 0
-394 -523 0
-394 -524 0
-394 -525 0
-394 526 0
-394 527 0
-395 520 0
-395 -521 0
-395 522 0
-395 -523 0
-395 -524 0
-395 -525 0
-395 526 0
-395 527 0
-398 -520 0
-398 521 0
-398 522 0
-398 -523 0
-398 -524 0
-398 -525 0
-398 526 0
-398 527 0
-399 520 0
-399 521 0
-399 522 0
-399 -523 0
-399 -524 0
-399 -525 0
-399 526 0
-399 527 0
-402 -520 0
-402 -521 0
-402 -522 0
-402 523 0
-402 -524 0
-402 -525 0
-402 526 0
-402 527 0
-403 520 0
-403 -521 0
-403 -522 0
-403 523 0
-403 -524 0
-403 -525 0
-403 526 0
-403 527 0
-406 -520 0
-406 521 0
-406 -522 0
-406 523 0
-406 -524 0
-406 -525 0
-406 526 0
-406 527 0
-407 520 0
-407 521 0
-407 -522 0
-407 523 0
-407 -524 0
-407 -525 0
-407 526 0
-407 527 0
-410 -520 0
-410 -521 0
-410 522 0
-410 523 0
-410 -524 0
-410 -525 0
-410 526 0
-410 527 0
-411 520 0
-411 -521 0
-411 522 0
-411 523 0
-411 -524 0
-411 -525 0
-411 526 0
-411 527 0
-414 -520 0
-414 521 0
-414 522 0
-414 523 0
-414 -524 0
-414 -525 0
-414 526 0
-414 527 0
-415 520 0
-415 521 0
-415 522 0
-415 523 0
-415 -524 0
-415 -525 0
-415 526 0
-415 527 0
-418 -520 0
-418 -521 0
-418 -522 0
-418 -523 0
-418 524 0
-418 -525 0
-418 526 0
-418 527 0
-419 520 0
-419 -521 0
-419 -522 0
-419 -523 0
-419 524 0
-419 -525 0
-419 526 0
-419 527 0
-422 -520 0
-422 521 0
-422 -522 0
-422 -523 0
-422 524 0
-422 -525 0
-422 526 0
-422 527 0
-423 520 0
-423 521 0
-423 -522 0
-423 -523 0
-423 524 0
-423 -525 0
-423 526 0
-423 527 0
-426 -520 0
-426 -521 0
-426 522 0
-426 -523 0
-426 524 0
-426 -525 0
-426 526 0
-426 527 0
-427 520 0
-427 -521 0
-427 522 0
-427 -523 0
-427 524 0
-427 -525 0
-427 526 0
-427 527 0
-430 -520 0
-430 521 0
-430 522 0
-430 -523 0
-430 524 0
-430 -525 0
-430 526 0
-430 527 0
-431 520 0
-431 521 0
-431 522 0
-431 -523 0
-431 524 0
-431 -525 0
-431 526 0
-431 527 0
-434 -520 0
-434 -521 0
-434 -522 0
-434 523 0
-434 524 0
-434 -525 0
-434 526 0
-434 527 0
-435 520 0
-435 -521 0
-435 -522 0
-435 523 0
-435 524 0
-435 -525 0
-435 526 0
-435 527 0
-438 -520 0
-438 521 0
-438 -522 0
-438 523 0
-438 524 0
-438 -525 0
-438 526 0
-438 527 0
-439 520 0
-439 521 0
-439 -522 0
-439 523 0
-439 524 0
-439 -525 0
-439 526 0
-439 527 0
-442 -520 0
-442 -521 0
-442 522 0
-442 523 0
-442 524 0
-442 -525 0
-442 526 0
-442 527 0
-443 520 0
-443 -521 0
-443 522 0
-443 523 0
-443 524 0
-443 -525 0
-443 526 0
-443 527 0
-446 -520 0
-446 521 0
-446 522 0
-446 523 0
-446 524 0
-446 -525 0
-446 526 0
-446 527 0
-447 520 0
-447 521 0
-447 522 0
-447 523 0
-447 524 0
-447 -525 0
-447 526 0
-447 527 0
-450 -520 0
-450 -521 0
-450 -522 0
-450 -523 0
-450 -524 0
-450 525 0
-450 526 0
-450 527 0
-451 520 0
-451 -521 0
-451 -522 0
-451 -523 0
-451 -524 0
-451 525 0
-451 526 0
-451 527 0
-454 -520 0
-454 521 0
-454 -522 0
-454 -523 0
-454 -524 0
-454 525 0
-454 526 0
-454 527 0
-455 520 0
-455 521 0
-455 -522 0
-455 -523 0
-455 -524 0
-455 525 0
-455 526 0
-455 527 0
-458 -520 0
-458 -521 0
-458 522 0
-458 -523 0
-458 -524 0
-458 525 0
-458 526 0
-458 527 0
-459 520 0
-459 -521 0
-459 522 0
-459 -523 0
-459 -524 0
-459 525 0
-459 526 0
-459 527 0
-462 -520 0
-462 521 0
-462 522 0
-462 -523 0
-462 -524 0
-462 525 0
-462 526 0
-462 527 0
-463 520 0
-463 521 0
-463 522 0
-463 -523 0
-463 -524 0
-463 525 0
-463 526 0
-463 527 0
-466 -520 0
-466 -521 0
-466 -522 0
-466 523 0
-466 -524 0
-466 525 0
-466 526 0
-466 527 0
-467 520 0
-467 -521 0
-467 -522 0
-467 523 0
-467 -524 0
-467 525 0
-467 526 0
-467 527 0
-470 -520 0
-470 521 0
-470 -522 0
-470 523 0
-470 -524 0
-470 525 0
-470 526 0
-470 527 0
-471 520 0
-471 521 0
-471 -522 0
-471 523 0
-471 -524 0
-471 525 0
-471 526 0
-471 527 0
-474 -520 0
-474 -521 0
-474 522 0
-474 523 0
-474 -524 0
-474 525 0
-474 526 0
-474 527 0
-475 520 0
-475 -521 0
-475 522 0
-475 523 0
-475 -524 0
-475 525 0
-475 526 0
-475 527 0
-478 -520 0
-478 521 0
-478 522 0
-478 523 0
-478 -524 0
-478 525 0
-478 526 0
-478 527 0
-479 520 0
-479 521 0
-479 522 0
-479 523 0
-479 -524 0
-479 525 0
-479 526 0
-479 527 0
-482 -520 0
-482 -521 0
-482 -522 0
-482 -523 0
-482 524 0
-482 525 0
-482 526 0
-482 527 0
-483 520 0
-483 -521 0
-483 -522 0
-483 -523 0
-483 524 0
-483 525 0
-483 526 0
-483 527 0
-486 -520 0
-486 521 0
-486 -522 0
-486 -523 0
-486 524 0
-486 525 0
-486 526 0
-486 527 0
-487 520 0
-487 521 0
-487 -522 0
-487 -523 0
-487 524 0
-487 525 0
-487 526 0
-487 527 0
-490 -520 0
-490 -521 0
-490 522 0
-490 -523 0
-490 524 0
-490 525 0
-490 526 0
-490 527 0
-491 520 0
-491 -521 0
-491 522 0
-491 -523 0
-491 524 0
-491 525 0
-491 526 0
-491 527 0
-494 -520 0
-494 521 0
-494 522 0
-494 -523 0
-494 524 0
-494 525 0
-494 526 0
-494 527 0
-495 520 0
-495 521 0
-495 522 0
-495 -523 0
-495 524 0
-495 525 0
-495 526 0
-495 527 0
-498 -520 0
-498 -521 0
-498 -522 0
-498 523 0
-498 524 0
-498 525 0
-498 526 0
-498 527 0
-499 520 0
-499 -521 0
-499 -522 0
-499 523 0
-499 524 0
-499 525 0
-499 526 0
-499 527 0
-502 -520 0
-502 521 0
-502 -522 0
-502 523 0
-502 524 0
-502 525 0
-502 526 0
-502 527 0
-503 520 0
-503 521 0
-503 -522 0
-503 523 0
-503 524 0
-503 525 0
-503 526 0
-503 527 0
-506 -520 0
-506 -521 0
-506 522 0
-506 523 0
-506 524 0
-506 525 0
-506 526 0
-506 527 0
-507 520 0
-507 -521 0
-507 522 0
-507 523 0
-507 524 0
-507 525 0
-507 526 0
-507 527 0
-510 -520 0
-510 521 0
-510 522 0
-510 523 0
-510 524 0
-510 525 0
-510 526 0
-510 527 0
-511 520 0
-511 521 0
-511 522 0
-511 523 0
-511 524 0
-511 525 0
-511 526 0
-511 527 0
4 5 6 7 12 13 14 15 20 21 22 23 28 29 30 31 36 37 38 39 44 45 46 47 52 53 54 55 60 61 62 63 68 69 70 71 76 77 78 79 84 85 86 87 92 93 94 95 100 101 102 103 108 109 110 111 116 117 118 119 124 125 126 127 132 133 134 135 140 141 142 143 148 149 150 151 156 157 158 159 164 165 166 167 172 173 174 175 180 181 182 183 188 189 190 191 196 197 198 199 204 205 206 207 212 213 214 215 220 221 222 223 228 229 230 231 236 237 238 239 244 245 246 247 252 253 254 255 260 261 262 263 268 269 270 271 276 277 278 279 284 285 286 287 292 293 294 295 300 301 302 303 308 309 310 311 316 317 318 319 324 325 326 327 332 333 334 335 340 341 342 343 348 349 350 351 356 357 358 359 364 365 366 367 372 373 374 375 380 381 382 383 388 389 390 391 396 397 398 399 404 405 406 407 412 413 414 415 420 421 422 423 428 429 430 431 436 437 438 439 444 445 446 447 452 453 454 455 460 461 462 463 468 469 470 471 476 477 478 479 484 485 486 487 492 493 494 495 500 501 502 503 508 509 510 511 0
-4 -528 0
-4 -529 0
-4 -530 0
-4 -531 0
-4 -532 0
-4 -533 0
-4 -534 0
-4 -535 0
-5 528 0
-5 -529 0
-5 -530 0
-5 -531 0
-5 -532 0
-5 -533 0
-5 -534 0
-5 -535 0
-6 -528 0
-6 529 0
-6 -530 0
-6 -531 0
-6 -532 0
-6 -533 0
-6 -534 0
-6 -535 0
-7 528 0
-7 529 0
-7 -530 0
-7 -531 0
-7 -532 0
-7 -533 0
-7 -534 0
-7 -535 0
-12 -528 0
-12 -529 0
-12 530 0
-12 -531 0
-12 -532 0
-12 -533 0
-12 -534 0
-12 -535 0
-13 528 0
-13 -529 0
-13 530 0
-13 -531 0
-13 -532 0
-13 -533 0
-13 -534 0
-13 -535 0
-14 -528 0
-14 529 0
-14 530 0
-14 -531 0
-14 -532 0
-14 -533 0
-14 -534 0
-14 -535 0
-15 528 0
-15 529 0
-15 530 0
-15 -531 0
-15 -532 0
-15 -533 0
-15 -534 0
-15 -535 0
-20 -528 0
-20 -529 0
-20 -530 0
-20 531 0
-20 -532 0
-20 -533 0
-20 -534 0
-20 -535 0
-21 528 0
-21 -529 0
-21 -530 0
-21 531 0
-21 -532 0
-21 -533 0
-21 -534 0
-21 -535 0
-22 -528 0
-22 529 0
-22 -530 0
-22 531 0
-22 -532 0
-22 -533 0
-22 -534 0
-22 -535 0
-23 528 0
-23 529 0
-23 -530 0
-23 531 0
-23 -532 0
-23 -533 0
-23 -534 0
-23 -535 0
-28 -528 0
-28 -529 0
-28 530 0
-28 531 0
-28 -532 0
-28 -533 0
-28 -534 0
-28 -535 0
-29 528 0
-29 -529 0
-29 530 0
-29 531 0
-29 -532 0
-29 -533 0
-29 -534 0
-29 -535 0
-30 -528 0
-30 529 0
-30 530 0
-30 531 0
-30 -532 0
-30 -533 0
-30 -534 0
-30 -535 0
-31 528 0
-31 529 0
-31 530 0
-31 531 0
-31 -532 0
-31 -533 0
-31 -534 0
-31 -535 0
-36 -528 0
-36 -529 0
-36 -530 0
-36 -531 0
-36 532 0
-36 -533 0
-36 -534 0
-36 -535 0
-37 528 0
-37 -529 0
-37 -530 0
-37 -531 0
-37 532 0
-37 -533 0
-37 -534 0
-37 -535 0
-38 -528 0
-38 529 0
-38 -530 0
-38 -531 0
-38 532 0
-38 -533 0
-38 -534 0
-38 -535 0
-39 528 0
-39 529 0
-39 -530 0
-39 -531 0
-39 532 0
-39 -533 0
-39 -534 0
-39 -535 0
-44 -528 0
-44 -529 0
-44 530 0
-44 -531 0
-44 532 0
-44 -533 0
-44 -534 0
-44 -535 0
-45 528 0
-45 -529 0
-45 530 0
-45 -531 0
-45 532 0
-45 -533 0
-45 -534 0
-45 -535 0
-46 -528 0
-46 529 0
-46 530 0
-46 -531 0
-46 532 0
-46 -533 0
-46 -534 0
-46 -535 0
-47 528 0
-47 529 0
-47 530 0
-47 -531 0
-47 532 0
-47 -533 0
-47 -534 0
-47 -535 0
-52 -528 0
-52 -529 0
-52 -530 0
-52 531 0
-52 532 0
-52 -533 0
-52 -534 0
-52 -535 0
-53 528 0
-53 -529 0
-53 -530 0
-53 531 0
-53 532 0
-53 -533 0
-53 -534 0
-53 -535 0
-54 -528 0
-54 529 0
-54 -530 0
-54 531 0
-54 532 0
-54 -533 0
-54 -534 0
-54 -535 0
-55 528 0
-55 529 0
-55 -530 0
-55 531 0
-55 532 0
-55 -533 0
-55 -534 0
-55 -535 0
-60 -528 0
-60 -529 0
-60 530 0
-60 531 0
-60 532 0
-60 -533 0
-60 -534 0
-60 -535 0
-61 528 0
-61 -529 0
-61 530 0
-61 531 0
-61 532 0
-61 -533 0
-61 -534 0
-61 -535 0
-62 -528 0
-62 529 0
-62 530 0
-62 531 0
-62 532 0
-62 -533 0
-62 -534 0
-62 -535 0
-63 528 0
-63 529 0
-63 530 0
-63 531 0
-63 532 0
-63 -533 0
-63 -534 0
-63 -535 0
-68 -528 0
-68 -529 0
-68 -530 0
-68 -531 0
-68 -532 0
-68 533 0
-68 -534 0
-68 -535 0
-69 528 0
-69 -529 0
-69 -530 0
-69 -531 0
-69 -532 0
-69 533 0
-69 -534 0
-69 -535 0
-70 -528 0
-70 529 0
-70 -530 0
-70 -531 0
-70 -532 0
-70 533 0
-70 -534 0
-70 -535 0
-71 528 0
-71 529 0
-71 -530 0
-71 -531 0
-71 -532 0
-71 533 0
-71 -534 0
-71 -535 0
-76 -528 0
-76 -529 0
-76 530 0
-76 -531 0
-76 -532 0
-76 533 0
-76 -534 0
-76 -535 0
-77 528 0
-77 -529 0
-77 530 0
-77 -531 0
-77 -532 0
-77 533 0
-77 -534 0
-77 -535 0
-78 -528 0
-78 529 0
-78 530 0
-78 -531 0
-78 -532 0
-78 533 0
-78 -534 0
-78 -535 0
-79 528 0
-79 529 0
-79 530 0
-79 -531 0
-79 -532 0
-79 533 0
-79 -534 0
-79 -535 0
-84 -528 0
-84 -529 0
-84 -530 0
-84 531 0
-84 -532 0
-84 533 0
-84 -534 0
-84 -535 0
-85 528 0
-85 -529 0
-85 -530 0
-85 531 0
-85 -532 0
-85 533 0
-85 -534 0
-85 -535 0
-86 -528 0
-86 529 0
-86 -530 0
-86 531 0
-86 -532 0
-86 533 0
-86 -534 0
-86 -535 0
-87 528 0
-87 529 0
-87 -530 0
-87 531 0
-87 -532 0
-87 533 0
-87 -534 0
-87 -535 0
-92 -528 0
-92 -529 0
-92 530 0
-92 531 0
-92 -532 0
-92 533 0
-92 -534 0
-92 -535 0
-93 528 0
-93 -529 0
-93 530 0
-93 531 0
-93 -532 0
-93 533 0
-93 -534 0
-93 -535 0
-94 -528 0
-94 529 0
-94 530 0
-94 531 0
-94 -532 0
-94 533 0
-94 -534 0
-94 -535 0
-95 528 0
-95 529 0
-95 530 0
-95 531 0
-95 -532 0
-95 533 0
-95 -534 0
-95 -535 0
-100 -528 0
-100 -529 0
-100 -530 0
-100 -531 0
-100 532 0
-100 533 0
-100 -534 0
-100 -535 0
-101 528 0
-101 -529 0
-101 -530 0
-101 -531 0
-101 532 0
-101 533 0
-101 -534 0
-101 -535 0
-102 -528 0
-102 529 0
-102 -530 0
-102 -531 0
-102 532 0
-102 533 0
-102 -534 0
-102 -535 0
-103 528 0
-103 529 0
-103 -530 0
-103 -531 0
-103 532 0
-103 533 0
-103 -534 0
-103 -535 0
-108 -528 0
-108 -529 0
-108 530 0
-108 -531 0
-108 532 0
-108 533 0
-108 -534 0
-108 -535 0
-109 528 0
-109 -529 0
-109 530 0
-109 -531 0
-109 532 0
-109 533 0
-109 -534 0
-109 -535 0
-110 -528 0
-110 529 0
-110 530 0
-110 -531 0
-110 532 0
-110 533 0
-110 -534 0
-110 -535 0
-111 528 0
-111 529 0
-111 530 0
-111 -531 0
-111 532 0
-111 533 0
-111 -534 0
-111 -535 0
-116 -528 0
-116 -529 0
-116 -530 0
-116 531 0
-116 532 0
-116 533 0
-116 -534 0
-116 -535 0
-117 528 0
-117 -529 0
-117 -530 0
-117 531 0
-117 532 0
-117 533 0
-117 -534 0
-117 -535 0
-118 -528 0
-118 529 0
-118 -530 0
-118 531 0
-118 532 0
-118 533 0
-118 -534 0
-118 -535 0
-119 528 0
-119 529 0
-119 -530 0
-119 531 0
-119 532 0
-119 533 0
-119 -534 0
-119 -535 0
-124 -528 0
-124 -529 0
-124 530 0
-124 531 0
-124 532 0
-124 533 0
-124 -534 0
-124 -535 0
-125 528 0
-125 -529 0
-125 530 0
-125 531 0
-125 532 0
-125 533 0
-125 -534 0
-125 -535 0
-126 -528 0
-126 529 0
-126 530 0
-126 531 0
-126 532 0
-126 533 0
-126 -534 0
-126 -535 0
-127 528 0
-127 529 0
-127 530 0
-127 531 0
-127 532 0
-127 533 0
-127 -534 0
-127 -535 0
-132 -528 0
-132 -529 0
-132 -530 0
-132 -531 0
-132 -532 0
-132 -533 0
-132 534 0
-132 -535 0
-133 528 0
-133 -529 0
-133 -530 0
-133 -531 0
-133 -532 0
-133 -533 0
-133 534 0
-133 -535 0
-134 -528 0
-134 529 0
-134 -530 0
-134 -531 0
-134 -532 0
-134 -533 0
-134 534 0
-134 -535 0
-135 528 0
-135 529 0
-135 -530 0
-135 -531 0
-135 -532 0
-135 -533 0
-135 534 0
-135 -535 0
-140 -528 0
-140 -529 0
-140 530 0
-140 -531 0
-140 -532 0
-140 -533 0
-140 534 0
-140 -535 0
-141 528 0
-141 -529 0
-141 530 0
-141 -531 0
-141 -532 0
-141 -533 0
-141 534 0
-141 -535 0
-142 -528 0
-142 529 0
-142 530 0
-142 -531 0
-142 -532 0
-142 -533 0
-142 534 0
-142 -535 0
-143 528 0
-143 529 0
-143 530 0
-143 -531 0
-143 -532 0
-143 -533 0
-143 534 0
-143 -535 0
-148 -528 0
-148 -529 0
-148 -530 0
-148 531 0
-148 -532 0
-148 -533 0
-148 534 0
-148 -535 0
-149 528 0
-149 -529 0
-149 -530 0
-149 531 0
-149 -532 0
-149 -533 0
-149 534 0
-149 -535 0
-150 -528 0
-150 529 0
-150 -530 0
-150 531 0
-150 -532 0
-150 -533 0
-150 534 0
-150 -535 0
-151 528 0
-151 529 0
-151 -530 0
-151 531 0
-151 -532 0
-151 -533 0
-151 534 0
-151 -535 0
-156 -528 0
-156 -529 0
-156 530 0
-156 531 0
-156 -532 0
-156 -533 0
-156 534 0
-156 -535 0
-157 528 0
-157 -529 0
-157 530 0
-157 531 0
-157 -532 0
-157 -533 0
-157 534 0
-157 -535 0
-158 -528 0
-158 529 0
-158 530 0
-158 531 0
-158 -532 0
-158 -533 0
-158 534 0
-158 -535 0
-159 528 0
-159 529 0
-159 530 0
-159 531 0
-159 -532 0
-159 -533 0
-159 534 0
-159 -535 0
-164 -528 0
-164 -529 0
-164 -530 0
-164 -531 0
-164 532 0
-164 -533 0
-164 534 0
-164 -535 0
-165 528 0
-165 -529 0
-165 -530 0
-165 -531 0
-165 532 0
-165 -533 0
-165 534 0
-165 -535 0
-166 -528 0
-166 529 0
-166 -530 0
-166 -531 0
-166 532 0
-166 -533 0
-166 534 0
-166 -535 0
-167 528 0
-167 529 0
-167 -530 0
-167 -531 0
-167 532 0
-167 -533 0
-167 534 0
-167 -535 0
-172 -528 0
-172 -529 0
-172 530 0
-172 -531 0
-172 532 0
-172 -533 0
-172 534 0
-172 -535 0
-173 528 0
-173 -529 0
-173 530 0
-173 -531 0
-173 532 0
-173 -533 0
-173 534 0
-173 -535 0
-174 -528 0
-174 529 0
-174 530 0
-174 -531 0
-174 532 0
-174 -533 0
-174 534 0
-174 -535 0
-175 528 0
-175 529 0
-175 530 0
-175 -531 0
-175 532 0
-175 -533 0
-175 534 0
-175 -535 0
-180 -528 0
-180 -529 0
-180 -530 0
-180 531 0
-180 532 0
-180 -533 0
-180 534 0
-180 -535 0
-181 528 0
-181 -529 0
-181 -530 0
-181 531 0
-181 532 0
-181 -533 0
-181 534 0
-181 -535 0
-182 -528 0
-182 529 0
-182 -530 0
-182 531 0
-182 532 0
-182 -533 0
-182 534 0
-182 -535 0
-183 528 0
-183 529 0
-183 -530 0
-183 531 0
-183 532 0
-183 -533 0
-183 534 0
-183 -535 0
-188 -528 0
-188 -529 0
-188 530 0
-188 531 0
-188 532 0
-188 -533 0
-188 534 0
-188 -535 0
-189 528 0
-189 -529 0
-189 530 0
-189 531 0
-189 532 0
-189 -533 0
-189 534 0
-189 -535 0
-190 -528 0
-190 529 0
-190 530 0
-190 531 0
-190 532 0
-190 -533 0
-190 534 0
-190 -535 0
-191 528 0
-191 529 0
-191 530 0
-191 531 0
-191 532 0
-191 -533 0
-191 534 0
-191 -535 0
-196 -528 0
-196 -529 0
-196 -530 0
-196 -531 0
-196 -532 0
-196 533 0
-196 534 0
-196 -535 0
-197 528 0
-197 -529 0
-197 -530 0
-197 -531 0
-197 -532 0
-197 533 0
-197 534 0
-197 -535 0
-198 -528 0
-198 529 0
-198 -530 0
-198 -531 0
-198 -532 0
-198 533 0
-198 534 0
-198 -535 0
-199 528 0
-199 529 0
-199 -530 0
-199 -531 0
-199 -532 0
-199 533 0
-199 534 0
-199 -535 0
-204 -528 0
-204 -529 0
-204 530 0
-204 -531 0
-204 -532 0
-204 533 0
-204 534 0
-204 -535 0
-205 528 0
-205 -529 0
-205 530 0
-205 -531 0
-205 -532 0
-205 533 0
-205 534 0
-205 -535 0
-206 -528 0
-206 529 0
-206 530 0
-206 -531 0
-206 -532 0
-206 533 0
-206 534 0
-206 -535 0
-207 528 0
-207 529 0
-207 530 0
-207 -531 0
-207 -532 0
-207 533 0
-207 534 0
-207 -535 0
-212 -528 0
-212 -529 0
-212 -530 0
-212 531 0
-212 -532 0
-212 533 0
-212 534 0
-212 -535 0
-213 528 0
-213 -529 0
-213 -530 0
-213 531 0
-213 -532 0
-213 533 0
-213 534 0
-213 -535 0
-214 -528 0
-214 529 0
-214 -530 0
-214 531 0
-214 -532 0
-214 533 0
-214 534 0
-214 -535 0
-215 528 0
-215 529 0
-215 -530 0
-215 531 0
-215 -532 0
-215 533 0
-215 534 0
-215 -535 0
-220 -528 0
-220 -529 0
-220 530 0
-220 531 0
-220 -532 0
-220 533 0
-220 534 0
-220 -535 0
-221 528 0
-221 -529 0
-221 530 0
-221 531 0
-221 -532 0
-221 533 0
-221 534 0
-221 -535 0
-222 -528 0
-222 529 0
-222 530 0
-222 531 0
-222 -532 0
-222 533 0
-222 534 0
-222 -535 0
-223 528 0
-223 529 0
-223 530 0
-223 531 0
-223 -532 0
-223 533 0
-223 534 0
-223 -535 0
-228 -528 0
-228 -529 0
-228 -530 0
-228 -531 0
-228 532 0
-228 533 0
-228 534 0
-228 -535 0
-229 528 0
-229 -529 0
-229 -530 0
-229 -531 0
-229 532 0
-229 533 0
-229 534 0
-229 -535 0
-230 -528 0
-230 529 0
-230 -530 0
-230 -531 0
-230 532 0
-230 533 0
-230 534 0
-230 -535 0
-231 528 0
-231 529 0
-231 -530 0
-231 -531 0
-231 532 0
-231 533 0
-231 534 0
-231 -535 0
-236 -528 0
-236 -529 0
-236 530 0
-236 -531 0
-236 532 0
-236 533 0
-236 534 0
-236 -535 0
-237 528 0
-237 -529 0
-237 530 0
-237 -531 0
-237 532 0
-237 533 0
-237 534 0
-237 -535 0
-238 -528 0
-238 529 0
-238 530 0
-238 -531 0
-238 532 0
-238 533 0
-238 534 0
-238 -535 0
-239 528 0
-239 529 0
-239 530 0
-239 -531 0
-239 532 0
-239 533 0
-239 534 0
-239 -535 0
-244 -528 0
-244 -529 0
-244 -530 0
-244 531 0
-244 532 0
-244 533 0
-244 534 0
-244 -535 0
-245 528 0
-245 -529 0
-245 -530 0
-245 531 0
-245 532 0
-245 533 0
-245 534 0
-245 -535 0
-246 -528 0
-246 529 0
-246 -530 0
-246 531 0
-246 532 0
-246 533 0
-246 534 0
-246 -535 0
-247 528 0
-247 529 0
-247 -530 0
-247 531 0
-247 532 0
-247 533 0
-247 534 0
-247 -535 0
-252 -528 0
-252 -529 0
-252 530 0
-252 531 0
-252 532 0
-252 533 0
-252 534 0
-252 -535 0
-253 528 0
-253 -529 0
-253 530 0
-253 531 0
-253 532 0
-253 533 0
-253 534 0
-253 -535 0
-254 -528 0
-254 529 0
-254 530 0
-254 531 0
-254 532 0
-254 533 0
-254 534 0
-254 -535 0
-255 528 0
-255 529 0
-255 530 0
-255 531 0
-255 532 0
-255 533 0
-255 534 0
-255 -535 0
-260 -528 0
-260 -529 0
-260 -530 0
-260 -531 0
-260 -532 0
-260 -533 0
-260 -534 0
-260 535 0
-261 528 0
-261 -529 0
-261 -530 0
-261 -531 0
-261 -532 0
-261 -533 0
-261 -534 0
-261 535 0
-262 -528 0
-262 529 0
-262 -530 0
-262 -531 0
-262 -532 0
-262 -533 0
-262 -534 0
-262 535 0
-263 528 0
-263 529 0
-263 -530 0
-263 -531 0
-263 -532 0
-263 -533 0
-263 -534 0
-263 535 0
-268 -528 0
-268 -529 0
-268 530 0
-268 -531 0
-268 -532 0
-268 -533 0
-268 -534 0
-268 535 0
-269 528 0
-269 -529 0
-269 530 0
-269 -531 0
-269 -532 0
-269 -533 0
-269 -534 0
-269 535 0
-270 -528 0
-270 529 0
-270 530 0
-270 -531 0
-270 -532 0
-270 -533 0
-270 -534 0
-270 535 0
-271 528 0
-271 529 0
-271 530 0
-271 -531 0
-271 -532 0
-271 -533 0
-271 -534 0
-271 535 0
-276 -528 0
-276 -529 0
-276 -530 0
-276 531 0
-276 -532 0
-276 -533 0
-276 -534 0
-276 535 0
-277 528 0
-277 -529 0
-277 -530 0
-277 531 0
-277 -532 0
-277 -533 0
-277 -534 0
-277 535 0
-278 -528 0
-278 529 0
-278 -530 0
-278 531 0
-278 -532 0
-278 -533 0
-278 -534 0
-278 535 0
-279 528 0
-279 529 0
-279 -530 0
-279 531 0
-279 -532 0
-279 -533 0
-279 -534 0
-279 535 0
-284 -528 0
-284 -529 0
-284 530 0
-284 531 0
-284 -532 0
-284 -533 0
-284 -534 0
-284 535 0
-285 528 0
-285 -529 0
-285 530 0
-285 531 0
-285 -532 0
-285 -533 0
-285 -534 0
-285 535 0
-286 -528 0
-286 529 0
-286 530 0
-286 531 0
-286 -532 0
-286 -533 0
-286 -534 0
-286 535 0
-287 528 0
-287 529 0
-287 530 0
-287 531 0
-287 -532 0
-287 -533 0
-287 -534 0
-287 535 0
-292 -528 0
-292 -529 0
-292 -530 0
-292 -531 0
-292 532 0
-292 -533 0
-292 -534 0
-292 535 0
-293 528 0
-293 -529 0
-293 -530 0
-293 -531 0
-293 532 0
-293 -533 0
-293 -534 0
-293 535 0
-294 -528 0
-294 529 0
-294 -530 0
-294 -531 0
-294 532 0
-294 -533 0
-294 -534 0
-294 535 0
-295 528 0
-295 529 0
-295 -530 0
-295 -531 0
-295 532 0
-295 -533 0
-295 -534 0
-295 535 0
-300 -528 0
-300 -529 0
-300 530 0
-300 -531 0
-300 532 0
-300 -533 0
-300 -534 0
-300 535 0
-301 528 0
-301 -529 0
-301 530 0
-301 -531 0
-301 532 0
-301 -533 0
-301 -534 0
-301 535 0
-302 -528 0
-302 529 0
-302 530 0
-302 -531 0
-302 532 0
-302 -533 0
-302 -534 0
-302 535 0
-303 528 0
-303 529 0
-303 530 0
-303 -531 0
-303 532 0
-303 -533 0
-303 -534 0
-303 535 0
-308 -528 0
-308 -529 0
-308 -530 0
-308 531 0
-308 532 0
-308 -533 0
-308 -534 0
-308 535 0
-309 528 0
-309 -529 0
-309 -530 0
-309 531 0
-309 532 0
-309 -533 0
-309 -534 0
-309 535 0
-310 -528 0
-310 529 0
-310 -530 0
-310 531 0
-310 532 0
-310 -533 0
-310 -534 0
-310 535 0
-311 528 0
-311 529 0
-311 -530 0
-311 531 0
-311 532 0
-311 -533 0
-311 -534 0
-311 535 0
-316 -528 0
-316 -529 0
-316 530 0
-316 531 0
-316 532 0
-316 -533 0
-316 -534 0
-316 535 0
-317 528 0
-317 -529 0
-317 530 0
-317 531 0
-317 532 0
-317 -533 0
-317 -534 0
-317 535 0
-318 -528 0
-318 529 0
-318 530 0
-318 531 0
-318 532 0
-318 -533 0
-318 -534 0
-318 535 0
-319 528 0
-319 529 0
-319 530 0
-319 531 0
-319 532 0
-319 -533 0
-319 -534 0
-319 535 0
-324 -528 0
-324 -529 0
-324 -530 0
-324 -531 0
-324 -532 0
-324 533 0
-324 -534 0
-324 535 0
-325 528 0
-325 -529 0
-325 -530 0
-325 -531 0
-325 -532 0
-325 533 0
-325 -534 0
-325 535 0
-326 -528 0
-326 529 0
-326 -530 0
-326 -531 0
-326 -532 0
-326 533 0
-326 -534 0
-326 535 0
-327 528 0
-327 529 0
-327 -530 0
-327 -531 0
-327 -532 0
-327 533 0
-327 -534 0
-327 535 0
-332 -528 0
-332 -529 0
-332 530 0
-332 -531 0
-332 -532 0
-332 533 0
-332 -534 0
-332 535 0
-333 528 0
-333 -529 0
-333 530 0
-333 -531 0
-333 -532 0
-333 533 0
-333 -534 0
-333 535 0
-334 -528 0
-334 529 0
-334 530 0
-334 -531 0
-334 -532 0
-334 533 0
-334 -534 0
-334 535 0
-335 528 0
-335 529 0
-335 530 0
-335 -531 0
-335 -532 0
-335 533 0
-335 -534 0
-335 535 0
-340 -528 0
-340 -529 0
-340 -530 0
-340 531 0
-340 -532 0
-340 533 0
-340 -534 0
-340 535 0
-341 528 0
-341 -529 0
-341 -530 0
-341 531 0
-341 -532 0
-341 533 0
-341 -534 0
-341 535 0
-342 -528 0
-342 529 0
-342 -530 0
-342 531 0
-342 -532 0
-342 533 0
-342 -534 0
-342 535 0
-343 528 0
-343 529 0
-343 -530 0
-343 531 0
-343 -532 0
-343 533 0
-343 -534 0
-343 535 0
-348 -528 0
-348 -529 0
-348 530 0
-348 531 0
-348 -532 0
-348 533 0
-348 -534 0
-348 535 0
-349 528 0
-349 -529 0
-349 530 0
-349 531 0
-349 -532 0
-349 533 0
-349 -534 0
-349 535 0
-350 -528 0
-350 529 0
-350 530 0
-350 531 0
-350 -532 0
-350 533 0
-350 -534 0
-350 535 0
-351 528 0
-351 529 0
-351 530 0
-351 531 0
-351 -532 0
-351 533 0
-351 -534 0
-351 535 0
-356 -528 0
-356 -529 0
-356 -530 0
-356 -531 0
-356 532 0
-356 533 0
-356 -534 0
-356 535 0
-357 528 0
-357 -529 0
-357 -530 0
-357 -531 0
-357 532 0
-357 533 0
-357 -534 0
-357 535 0
-358 -528 0
-358 529 0
-358 -530 0
-358 -531 0
-358 532 0
-358 533 0
-358 -534 0
-358 535 0
-359 528 0
-359 529 0
-359 -530 0
-359 -531 0
-359 532 0
-359 533 0
-359 -534 0
-359 535 0
-364 -528 0
-364 -529 0
-364 530 0
-364 -531 0
-364 532 0
-364 533 0
-364 -534 0
-364 535 0
-365 528 0
-365 -529 0
-365 530 0
-365 -531 0
-365 532 0
-365 533 0
-365 -534 0
-365 535 0
-366 -528 0
-366 529 0
-366 530 0
-366 -531 0
-366 532 0
-366 533 0
-366 -534 0
-366 535 0
-367 528 0
-367 529 0
-367 530 0
-367 -531 0
-367 532 0
-367 533 0
-367 -534 0
-367 535 0
-372 -528 0
-372 -529 0
-372 -530 0
-372 531 0
-372 532 0
-372 533 0
-372 -534 0
-372 535 0
-373 528 0
-373 -529 0
-373 -530 0
-373 531 0
-373 532 0
-373 533 0
-373 -534 0
-373 535 0
-374 -528 0
-374 529 0
-374 -530 0
-374 531 0
-374 532 0
-374 533 0
-374 -534 0
-374 535 0
-375 528 0
-375 529 0
-375 -530 0
-375 531 0
-375 532 0
-375 533 0
-375 -534 0
-375 535 0
-380 -528 0
-380 -529 0
-380 530 0
-380 531 0
-380 532 0
-380 533 0
-380 -534 0
-380 535 0
-381 528 0
-381 -529 0
-381 530 0
-381 531 0
-381 532 0
-381 533 0
-381 -534 0
-381 535 0
-382 -528 0
-382 529 0
-382 530 0
-382 531 0
-382 532 0
-382 533 0
-382 -534 0
-382 535 0
-383 528 0
-383 529 0
-383 530 0
-383 531 0
-383 532 0
-383 533 0
-383 -534 0
-383 535 0
-388 -528 0
-388 -529 0
-388 -530 0
-388 -531 0
-388 -532 0
-388 -533 0
-388 534 0
-388 535 0
-389 528 0
-389 -529 0
-389 -530 0
-389 -531 0
-389 -532 0
-389 -533 0
-389 534 0
-389 535 0
-390 -528 0
-390 529 0
-390 -530 0
-390 -531 0
-390 -532 0
-390 -533 0
-390 534 0
-390 535 0
-391 528 0
-391 529 0
-391 -530 0
-391 -531 0
-391 -532 0
-391 -533 0
-391 534 0
-391 535 0
-396 -528 0
-396 -529 0
-396 530 0
-396 -531 0
-396 -532 0
-396 -533 0
-396 534 0
-396 535 0
-397 528 0
-397 -529 0
-397 530 0
-397 -531 0
-397 -532 0
-397 -533 0
-397 534 0
-397 535 0
-398 -528 0
-398 529 0
-398 530 0
-398 -531 0
-398 -532 0
-398 -533 0
-398 534 0
-398 535 0
-399 528 0
-399 529 0
-399 530 0
-399 -531 0
-399 -532 0
-399 -533 0
-399 534 0
-399 535 0
-404 -528 0
-404 -529 0
-404 -530 0
-404 531 0
-404 -532 0
-404 -533 0
-404 534 0
-404 535 0
-405 528 0
-405 -529 0
-405 -530 0
-405 531 0
-405 -532 0
-405 -533 0
-405 534 0
-405 535 0
-406 -528 0
-406 529 0
-406 -530 0
-406 531 0
-406 -532 0
-406 -533 0
-406 534 0
-406 535 0
-407 528 0
-407 529 0
-407 -530 0
-407 531 0
-407 -532 0
-407 -533 0
-407 534 0
-407 535 0
-412 -528 0
-412 -529 0
-412 530 0
-412 531 0
-412 -532 0
-412 -533 0
-412 534 0
-412 535 0
-413 528 0
-413 -529 0
-413 530 0
-413 531 0
-413 -532 0
-413 -533 0
-413 534 0
-413 535 0
-414 -528 0
-414 529 0
-414 530 0
-414 531 0
-414 -532 0
-414 -533 0
-414 534 0
-414 535 0
-415 528 0
-415 529 0
-415 530 0
-415 531 0
-415 -532 0
-415 -533 0
-415 534 0
-415 535 0
-420 -528 0
-420 -529 0
-420 -530 0
-420 -531 0
-420 532 0
-420 -533 0
-420 534 0
-420 535 0
-421 528 0
-421 -529 0
-421 -530 0
-421 -531 0
-421 532 0
-421 -533 0
-421 534 0
-421 535 0
-422 -528 0
-422 529 0
-422 -530 0
-422 -531 0
-422 532 0
-422 -533 0
-422 534 0
-422 535 0
-423 528 0
-423 529 0
-423 -530 0
-423 -531 0
-423 532 0
-423 -533 0
-423 534 0
-423 535 0
-428 -528 0
-428 -529 0
-428 530 0
-428 -531 0
-428 532 0
-428 -533 0
-428 534 0
-428 535 0
-429 528 0
-429 -529 0
-429 530 0
-429 -531 0
-429 532 0
-429 -533 0
-429 534 0
-429 535 0
-430 -528 0
-430 529 0
-430 530 0
-430 -531 0
-430 532 0
-430 -533 0
-430 534 0
-430 535 0
-431 528 0
-431 529 0
-431 530 0
-431 -531 0
-431 532 0
-431 -533 0
-431 534 0
-431 535 0
-436 -528 0
-436 -529 0
-436 -530 0
-436 531 0
-436 532 0
-436 -533 0
-436 534 0
-436 535 0
-437 528 0
-437 -529 0
-437 -530 0
-437 531 0
-437 532 0
-437 -533 0
-437 534 0
-437 535 0
-438 -528 0
-438 529 0
-438 -530 0
-438 531 0
-438 532 0
-438 -533 0
-438 534 0
-438 535 0
-439 528 0
-439 529 0
-439 -530 0
-439 531 0
-439 532 0
-439 -533 0
-439 534 0
-439 535 0
-444 -528 0
-444 -529 0
-444 530 0
-444 531 0
-444 532 0
-444 -533 0
-444 534 0
-444 535 0
-445 528 0
-445 -529 0
-445 530 0
-445 531 0
-445 532 0
-445 -533 0
-445 534 0
-445 535 0
-446 -528 0
-446 529 0
-446 530 0
-446 531 0
-446 532 0
-446 -533 0
-446 534 0
-446 535 0
-447 528 0
-447 529 0
-447 530 0
-447 531 0
-447 532 0
-447 -533 0
-447 534 0
-447 535 0
-452 -528 0
-452 -529 0
-452 -530 0
-452 -531 0
-452 -532 0
-452 533 0
-452 534 0
-452 535 0
-453 528 0
-453 -529 0
-453 -530 0
-453 -531 0
-453 -532 0
-453 533 0
-453 534 0
-453 535 0
-454 -528 0
-454 529 0
-454 -530 0
-454 -531 0
-454 -532 0
-454 533 0
-454 534 0
-454 535 0
-455 528 0
-455 529 0
-455 -530 0
-455 -531 0
-455 -532 0
-455 533 0
-455 534 0
-455 535 0
-460 -528 0
-460 -529 0
-460 530 0
-460 -531 0
-460 -532 0
-460 533 0
-460 534 0
-460 535 0
-461 528 0
-461 -529 0
-461 530 0
-461 -531 0
-461 -532 0
-461 533 0
-461 534 0
-461 535 0
-462 -528 0
-462 529 0
-462 530 0
-462 -531 0
-462 -532 0
-462 533 0
-462 534 0
-462 535 0
-463 528 0
-463 529 0
-463 530 0
-463 -531 0
-463 -532 0
-463 533 0
-463 534 0
-463 535 0
-468 -528 0
-468 -529 0
-468 -530 0
-468 531 0
-468 -532 0
-468 533 0
-468 534 0
-468 535 0
-469 528 0
-469 -529 0
-469 -530 0
-469 531 0
-469 -532 0
-469 533 0
-469 534 0
-469 535 0
-470 -528 0
-470 529 0
-470 -530 0
-470 531 0
-470 -532 0
-470 533 0
-470 534 0
-470 535 0
-471 528 0
-471 529 0
-471 -530 0
-471 531 0
-471 -532 0
-471 533 0
-471 534 0
-471 535 0
-476 -528 0
-476 -529 0
-476 530 0
-476 531 0
-476 -532 0
-476 533 0
-476 534 0
-476 535 0
-477 528 0
-477 -529 0
-477 530 0
-477 531 0
-477 -532 0
-477 533 0
-477 534 0
-477 535 0
-478 -528 0
-478 529 0
-478 530 0
-478 531 0
-478 -532 0
-478 533 0
-478 534 0
-478 535 0
-479 528 0
-479 529 0
-479 530 0
-479 531 0
-479 -532 0
-479 533 0
-479 534 0
-479 535 0
-484 -528 0
-484 -529 0
-484 -530 0
-484 -531 0
-484 532 0
-484 533 0
-484 534 0
-484 535 0
-485 528 0
-485 -529 0
-485 -530 0
-485 -531 0
-485 532 0
-485 533 0
-485 534 0
-485 535 0
-486 -528 0
-486 529 0
-486 -530 0
-486 -531 0
-486 532 0
-486 533 0
-486 534 0
-486 535 0
-487 528 0
-487 529 0
-487 -530 0
-487 -531 0
-487 532 0
-487 533 0
-487 534 0
-487 535 0
-492 -528 0
-492 -529 0
-492 530 0
-492 -531 0
-492 532 0
-492 533 0
-492 534 0
-492 535 0
-493 528 0
-493 -529 0
-493 530 0
-493 -531 0
-493 532 0
-493 533 0
-493 534 0
-493 535 0
-494 -528 0
-494 529 0
-494 530 0
-494 -531 0
-494 532 0
-494 533 0
-494 534 0
-494 535 0
-495 528 0
-495 529 0
-495 530 0
-495 -531 0
-495 532 0
-495 533 0
-495 534 0
-495 535 0
-500 -528 0
-500 -529 0
-500 -530 0
-500 531 0
-500 532 0
-500 533 0
-500 534 0
-500 535 0
-501 528 0
-501 -529 0
-501 -530 0
-501 531 0
-501 532 0
-501 533 0
-501 534 0
-501 535 0
-502 -528 0
-502 529 0
-502 -530 0
-502 531 0
-502 532 0
-502 533 0
-502 534 0
-502 535 0
-503 528 0
-503 529 0
-503 -530 0
-503 531 0
-503 532 0
-503 533 0
-503 534 0
-503 535 0
-508 -528 0
-508 -529 0
-508 530 0
-508 531 0
-508 532 0
-508 533 0
-508 534 0
-508 535 0
-509 528 0
-509 -529 0
-509 530 0
-509 531 0
-509 532 0
-509 533 0
-509 534 0
-509 535 0
-510 -528 0
-510 529 0
-510 530 0
-510 531 0
-510 532 0
-510 533 0
-510 534 0
-510 535 0
-511 528 0
-511 529 0
-511 530 0
-511 531 0
-511 532 0
-511 533 0
-511 534 0
-511 535 0
8 9 10 11 12 13 14 15 24 25 26 27 28 29 30 31 40 41 42 43 44 45 46 47 56 57 58 59 60 61 62 63 72 73 74 75 76 77 78 79 88 89 90 91 92 93 94 95 104 105 106 107 108 109 110 111 120 121 122 123 124 125 126 127 136 137 138 139 140 141 142 143 152 153 154 155 156 157 158 159 168 169 170 171 172 173 174 175 184 185 186 187 188 189 190 191 200 201 202 203 204 205 206 207 216 217 218 219 220 221 222 223 232 233 234 235 236 237 238 239 248 249 250 251 252 253 254 255 264 265 266 267 268 269 270 271 280 281 282 283 284 285 286 287 296 297 298 299 300 301 302 303 312 313 314 315 316 317 318 319 328 329 330 331 332 333 334 335 344 345 346 347 348 349 350 351 360 361 362 363 364 365 366 367 376 377 378 379 380 381 382 383 392 393 394 395 396 397 398 399 408 409 410 411 412 413 414 415 424 425 426 427 428 429 430 431 440 441 442 443 444 445 446 447 456 457 458 459 460 461 462 463 472 473 474 475 476 477 478 479 488 489 490 491 492 493 494 495 504 505 506 507 508 509 510 511 0
-8 -536 0
-8 -537 0
-8 -538 0
-8 -539 0
-8 -540 0
-8 -541 0
-8 -542 0
-8 -543 0
-9 536 0
-9 -537 0
-9 -538 0
-9 -539 0
-9 -540 0
-9 -541 0
-9 -542 0
-9 -543 0
-10 -536 0
-10 537 0
-10 -538 0
-10 -539 0
-10 -540 0
-10 -541 0
-10 -542 0
-10 -543 0
-11 536 0
-11 537 0
-11 -538 0
-11 -539 0
-11 -540 0
-11 -541 0
-11 -542 0
-11 -543 0
-12 -536 0
-12 -537 0
-12 538 0
-12 -539 0
-12 -540 0
-12 -541 0
-12 -542 0
-12 -543 0
-13 536 0
-13 -537 0
-13 538 0
-13 -539 0
-13 -540 0
-13 -541 0
-13 -542 0
-13 -543 0
-14 -536 0
-14 537 0
-14 538 0
-14 -539 0
-14 -540 0
-14 -541 0
-14 -542 0
-14 -543 0
-15 536 0
-15 537 0
-15 538 0
-15 -539 0
-15 -540 0
-15 -541 0
-15 -542 0
-15 -543 0
-24 -536 0
-24 -537 0
-24 -538 0
-24 539 0
-24 -540 0
-24 -541 0
-24 -542 0
-24 -543 0
-25 536 0
-25 -537 0
-25 -538 0
-25 539 0
-25 -540 0
-25 -541 0
-25 -542 0
-25 -543 0
-26 -536 0
-26 537 0
-26 -538 0
-26 539 0
-26 -540 0
-26 -541 0
-26 -542 0
-26 -543 0
-27 536 0
-27 537 0
-27 -538 0
-27 539 0
-27 -540 0
-27 -541 0
-27 -542 0
-27 -543 0
-28 -536 0
-28 -537 0
-28 538 0
-28 539 0
-28 -540 0
-28 -541 0
-28 -542 0
-28 -543 0
-29 536 0
-29 -537 0
-29 538 0
-29 539 0
-29 -540 0
-29 -541 0
-29 -542 0
-29 -543 0
-30 -536 0
-30 537 0
-30 538 0
-30 539 0
-30 -540 0
-30 -541 0
-30 -542 0
-30 -543 0
-31 536 0
-31 537 0
-31 538 0
-31 539 0
-31 -540 0
-31 -541 0
-31 -542 0
-31 -543 0
-40 -536 0
-40 -537 0
-40 -538 0
-40 -539 0
-40 540 0
-40 -541 0
-40 -542 0
-40 -543 0
-41 536 0
-41 -537 0
-41 -538 0
-41 -539 0
-41 540 0
-41 -541 0
-41 -542 0
-41 -543 0
-42 -536 0
-42 537 0
-42 -538 0
-42 -539 0
-42 540 0
-42 -541 0
-42 -542 0
-42 -543 0
-43 536 0
-43 537 0
-43 -538 0
-43 -539 0
-43 540 0
-43 -541 0
-43 -542 0
-43 -543 0
-44 -536 0
-44 -537 0
-44 538 0
-44 -539 0
-44 540 0
-44 -541 0
-44 -542 0
-44 -543 0
-45 536 0
-45 -537 0
-45 538 0
-45 -539 0
-45 540 0
-45 -541 0
-45 -542 0
-45 -543 0
-46 -536 0
-46 537 0
-46 538 0
-46 -539 0
-46 540 0
-46 -541 0
-46 -542 0
-46 -543 0
-47 536 0
-47 537 0
-47 538 0
-47 -539 0
-47 540 0
-47 -541 0
-47 -542 0
-47 -543 0
-56 -536 0
-56 -537 0
-56 -538 0
-56 539 0
-56 540 0
-56 -541 0
-56 -542 0
-56 -543 0
-57 536 0
-57 -537 0
-57 -538 0
-57 539 0
-57 540 0
-57 -541 0
-57 -542 0
-57 -543 0
-58 -536 0
-58 537 0
-58 -538 0
-58 539 0
-58 540 0
-58 -541 0
-58 -542 0
-58 -543 0
-59 536 0
-59 537 0
-59 -538 0
-59 539 0
-59 540 0
-59 -541 0
-59 -542 0
-59 -543 0
-60 -536 0
-60 -537 0
-60 538 0
-60 539 0
-60 540 0
-60 -541 0
-60 -542 0
-60 -543 0
-61 536 0
-61 -537 0
-61 538 0
-61 539 0
-61 540 0
-61 -541 0
-61 -542 0
-61 -543 0
-62 -536 0
-62 537 0
-62 538 0
-62 539 0
-62 540 0
-62 -541 0
-62 -542 0
-62 -543 0
-63 536 0
-63 537 0
-63 538 0
-63 539 0
-63 540 0
-63 -541 0
-63 -542 0
-63 -543 0
-72 -536 0
-72 -537 0
-72 -538 0
-72 -539 0
-72 -540 0
-72 541 0
-72 -542 0
-72 -543 0
-73 536 0
-73 -537 0
-73 -538 0
-73 -539 0
-73 -540 0
-73 541 0
-73 -542 0
-73 -543 0
-74 -536 0
-74 537 0
-74 -538 0
-74 -539 0
-74 -540 0
-74 541 0
-74 -542 0
-74 -543 0
-75 536 0
-75 537 0
-75 -538 0
-75 -539 0
-75 -540 0
-75 541 0
-75 -542 0
-75 -543 0
-76 -536 0
-76 -537 0
-76 538 0
-76 -539 0
-76 -540 0
-76 541 0
-76 -542 0
-76 -543 0
-77 536 0
-77 -537 0
-77 538 0
-77 -539 0
-77 -540 0
-77 541 0
-77 -542 0
-77 -543 0
-78 -536 0
-78 537 0
-78 538 0
-78 -539 0
-78 -540 0
-78 541 0
-78 -542 0
-78 -543 0
-79 536 0
-79 537 0
-79 538 0
-79 -539 0
-79 -540 0
-79 541 0
-79 -542 0
-79 -543 0
-88 -536 0
-88 -537 0
-88 -538 0
-88 539 0
-88 -540 0
-88 541 0
-88 -542 0
-88 -543 0
-89 536 0
-89 -537 0
-89 -538 0
-89 539 0
-89 -540 0
-89 541 0
-89 -542 0
-89 -543 0
-90 -536 0
-90 537 0
-90 -538 0
-90 539 0
-90 -540 0
-90 541 0
-90 -542 0
-90 -543 0
-91 536 0
-91 537 0
-91 -538 0
-91 539 0
-91 -540 0
-91 541 0
-91 -542 0
-91 -543 0
-92 -536 0
-92 -537 0
-92 538 0
-92 539 0
-92 -540 0
-92 541 0
-92 -542 0
-92 -543 0
-93 536 0
-93 -537 0
-93 538 0
-93 539 0
-93 -540 0
-93 541 0
-93 -542 0
-93 -543 0
-94 -536 0
-94 537 0
-94 538 0
-94 539 0
-94 -540 0
-94 541 0
-94 -542 0
-94 -543 0
-95 536 0
-95 537 0
-95 538 0
-95 539 0
-95 -540 0
-95 541 0
-95 -542 0
-95 -543 0
-104 -536 0
-104 -537 0
-104 -538 0
-104 -539 0
-104 540 0
-104 541 0
-104 -542 0
-104 -543 0
-105 536 0
-105 -537 0
-105 -538 0
-105 -539 0
-105 540 0
-105 541 0
-105 -542 0
-105 -543 0
-106 -536 0
-106 537 0
-106 -538 0
-106 -539 0
-106 540 0
-106 541 0
-106 -542 0
-106 -543 0
-107 536 0
-107 537 0
-107 -538 0
-107 -539 0
-107 540 0
-107 541 0
-107 -542 0
-107 -543 0
-108 -536 0
-108 -537 0
-108 538 0
-108 -539 0
-108 540 0
-108 541 0
-108 -542 0
-108 -543 0
-109 536 0
-109 -537 0
-109 538 0
-109 -539 0
-109 540 0
-109 541 0
-109 -542 0
-109 -543 0
-110 -536 0
-110 537 0
-110 538 0
-110 -539 0
-110 540 0
-110 541 0
-110 -542 0
-110 -543 0
-111 536 0
-111 537 0
-111 538 0
-111 -539 0
-111 540 0
-111 541 0
-111 -542 0
-111 -543 0
-120 -536 0
-120 -537 0
-120 -538 0
-120 539 0
-120 540 0
-120 541 0
-120 -542 0
-120 -543 0
-121 536 0
-121 -537 0
-121 -538 0
-121 539 0
-121 540 0
-121 541 0
-121 -542 0
-121 -543 0
-122 -536 0
-122 537 0
-122 -538 0
-122 539 0
-122 540 0
-122 541 0
-122 -542 0
-122 -543 0
-123 536 0
-123 537 0
-123 -538 0
-123 539 0
-123 540 0
-123 541 0
-123 -542 0
-123 -543 0
-124 -536 0
-124 -537 0
-124 538 0
-124 539 0
-124 540 0
-124 541 0
-124 -542 0
-124 -543 0
-125 536 0
-125 -537 0
-125 538 0
-125 539 0
-125 540 0
-125 541 0
-125 -542 0
-125 -543 0
-126 -536 0
-126 537 0
-126 538 0
-126 539 0
-126 540 0
-126 541 0
-126 -542 0
-126 -543 0
-127 536 0
-127 537 0
-127 538 0
-127 539 0
-127 540 0
-127 541 0
-127 -542 0
-127 -543 0
-136 -536 0
-136 -537 0
-136 -538 0
-136 -539 0
-136 -540 0
-136 -541 0
-136 542 0
-136 -543 0
-137 536 0
-137 -537 0
-137 -538 0
-137 -539 0
-137 -540 0
-137 -541 0
-137 542 0
-137 -543 0
-138 -536 0
-138 537 0
-138 -538 0
-138 -539 0
-138 -540 0
-138 -541 0
-138 542 0
-138 -543 0
-139 536 0
-139 537 0
-139 -538 0
-139 -539 0
-139 -540 0
-139 -541 0
-139 542 0
-139 -543 0
-140 -536 0
-140 -537 0
-140 538 0
-140 -539 0
-140 -540 0
-140 -541 0
-140 542 0
-140 -543 0
-141 536 0
-141 -537 0
-141 538 0
-141 -539 0
-141 -540 0
-141 -541 0
-141 542 0
-141 -543 0
-142 -536 0
-142 537 0
-142 538 0
-142 -539 0
-142 -540 0
-142 -541 0
-142 542 0
-142 -543 0
-143 536 0
-143 537 0
-143 538 0
-143 -539 0
-143 -540 0
-143 -541 0
-143 542 0
-143 -543 0
-152 -536 0
-152 -537 0
-152 -538 0
-152 539 0
-152 -540 0
-152 -541 0
-152 542 0
-152 -543 0
-153 536 0
-153 -537 0
-153 -538 0
-153 539 0
-153 -540 0
-153 -541 0
-153 542 0
-153 -543 0
-154 -536 0
-154 537 0
-154 -538 0
-154 539 0
-154 -540 0
-154 -541 0
-154 542 0
-154 -543 0
-155 536 0
-155 537 0
-155 -538 0
-155 539 0
-155 -540 0
-155 -541 0
-155 542 0
-155 -543 0
-156 -536 0
-156 -537 0
-156 538 0
-156 539 0
-156 -540 0
-156 -541 0
-156 542 0
-156 -543 0
-157 536 0
-157 -537 0
-157 538 0
-157 539 0
-157 -540 0
-157 -541 0
-157 542 0
-157 -543 0
-158 -536 0
-158 537 0
-158 538 0
-158 539 0
-158 -540 0
-158 -541 0
-158 542 0
-158 -543 0
-159 536 0
-159 537 0
-159 538 0
-159 539 0
-159 -540 0
-159 -541 0
-159 542 0
-159 -543 0
-168 -536 0
-168 -537 0
-168 -538 0
-168 -539 0
-168 540 0
-168 -541 0
-168 542 0
-168 -543 0
-169 536 0
-169 -537 0
-169 -538 0
-169 -539 0
-169 540 0
-169 -541 0
-169 542 0
-169 -543 0
-170 -536 0
-170 537 0
-170 -538 0
-170 -539 0
-170 540 0
-170 -541 0
-170 542 0
-170 -543 0
-171 536 0
-171 537 0
-171 -538 0
-171 -539 0
-171 540 0
-171 -541 0
-171 542 0
-171 -543 0
-172 -536 0
-172 -537 0
-172 538 0
-172 -539 0
-172 540 0
-172 -541 0
-172 542 0
-172 -543 0
-173 536 0
-173 -537 0
-173 538 0
-173 -539 0
-173 540 0
-173 -541 0
-173 542 0
-173 -543 0
-174 -536 0
-174 537 0
-174 538 0
-174 -539 0
-174 540 0
-174 -541 0
-174 542 0
-174 -543 0
-175 536 0
-175 537 0
-175 538 0
-175 -539 0
-175 540 0
-175 -541 0
-175 542 0
-175 -543 0
-184 -536 0
-184 -537 0
-184 -538 0
-184 539 0
-184 540 0
-184 -541 0
-184 542 0
-184 -543 0
-185 536 0
-185 -537 0
-185 -538 0
-185 539 0
-185 540 0
-185 -541 0
-185 542 0
-185 -543 0
-186 -536 0
-186 537 0
-186 -538 0
-186 539 0
-186 540 0
-186 -541 0
-186 542 0
-186 -543 0
-187 536 0
-187 537 0
-187 -538 0
-187 539 0
-187 540 0
-187 -541 0
-187 542 0
-187 -543 0
-188 -536 0
-188 -537 0
-188 538 0
-188 539 0
-188 540 0
-188 -541 0
-188 542 0
-188 -543 0
-189 536 0
-189 -537 0
-189 538 0
-189 539 0
-189 540 0
-189 -541 0
-189 542 0
-189 -543 0
-190 -536 0
-190 537 0
-190 538 0
-190 539 0
-190 540 0
-190 -541 0
-190 542 0
-190 -543 0
-191 536 0
-191 537 0
-191 538 0
-191 539 0
-191 540 0
-191 -541 0
-191 542 0
-191 -543 0
-200 -536 0
-200 -537 0
-200 -538 0
-200 -539 0
-200 -540 0
-200 541 0
-200 542 0
-200 -543 0
-201 536 0
-201 -537 0
-201 -538 0
-201 -539 0
-201 -540 0
-201 541 0
-201 542 0
-201 -543 0
-202 -536 0
-202 537 0
-202 -538 0
-202 -539 0
-202 -540 0
-202 541 0
-202 542 0
-202 -543 0
-203 536 0
-203 537 0
-203 -538 0
-203 -539 0
-203 -540 0
-203 541 0
-203 542 0
-203 -543 0
-204 -536 0
-204 -537 0
-204 538 0
-204 -539 0
-204 -540 0
-204 541 0
-204 542 0
-204 -543 0
-205 536 0
-205 -537 0
-205 538 0
-205 -539 0
-205 -540 0
-205 541 0
-205 542 0
-205 -543 0
-206 -536 0
-206 537 0
-206 538 0
-206 -539 0
-206 -540 0
-206 541 0
-206 542 0
-206 -543 0
-207 536 0
-207 537 0
-207 538 0
-207 -539 0
-207 -540 0
-207 541 0
-207 542 0
-207 -543 0
-216 -536 0
-216 -537 0
-216 -538 0
-216 539 0
-216 -540 0
-216 541 0
-216 542 0
-216 -543 0
-217 536 0
-217 -537 0
-217 -538 0
-217 539 0
-217 -540 0
-217 541 0
-217 542 0
-217 -543 0
-218 -536 0
-218 537 0
-218 -538 0
-218 539 0
-218 -540 0
-218 541 0
-218 542 0
-218 -543 0
-219 536 0
-219 537 0
-219 -538 0
-219 539 0
-219 -540 0
-219 541 0
-219 542 0
-219 -543 0
-220 -536 0
-220 -537 0
-220 538 0
-220 539 0
-220 -540 0
-220 541 0
-220 542 0
-220 -543 0
-221 536 0
-221 -537 0
-221 538 0
-221 539 0
-221 -540 0
-221 541 0
-221 542 0
-221 -543 0
-222 -536 0
-222 537 0
-222 538 0
-222 539 0
-222 -540 0
-222 541 0
-222 542 0
-222 -543 0
-223 536 0
-223 537 0
-223 538 0
-223 539 0
-223 -540 0
-223 541 0
-223 542 0
-223 -543 0
-232 -536 0
-232 -537 0
-232 -538 0
-232 -539 0
-232 540 0
-232 541 0
-232 542 0
-232 -543 0
-233 536 0
-233 -537 0
-233 -538 0
-233 -539 0
-233 540 0
-233 541 0
-233 542 0
-233 -543 0
-234 -536 0
-234 537 0
-234 -538 0
-234 -539 0
-234 540 0
-234 541 0
-234 542 0
-234 -543 0
-235 536 0
-235 537 0
-235 -538 0
-235 -539 0
-235 540 0
-235 541 0
-235 542 0
-235 -543 0
-236 -536 0
-236 -537 0
-236 538 0
-236 -539 0
-236 540 0
-236 541 0
-236 542 0
-236 -543 0
-237 536 0
-237 -537 0
-237 538 0
-237 -539 0
-237 540 0
-237 541 0
-237 542 0
-237 -543 0
-238 -536 0
-238 537 0
-238 538 0
-238 -539 0
-238 540 0
-238 541 0
-238 542 0
-238 -543 0
-239 536 0
-239 537 0
-239 538 0
-239 -539 0
-239 540 0
-239 541 0
-239 542 0
-239 -543 0
-248 -536 0
-248 -537 0
-248 -538 0
-248 539 0
-248 540 0
-248 541 0
-248 542 0
-248 -543 0
-249 536 0
-249 -537 0
-249 -538 0
-249 539 0
-249 540 0
-249 541 0
-249 542 0
-249 -543 0
-250 -536 0
-250 537 0
-250 -538 0
-250 539 0
-250 540 0
-250 541 0
-250 542 0
-250 -543 0
-251 536 0
-251 537 0
-251 -538 0
-251 539 0
-251 540 0
-251 541 0
-251 542 0
-251 -543 0
-252 -536 0
-252 -537 0
-252 538 0
-252 539 0
-252 540 0
-252 541 0
-252 542 0
-252 -543 0
-253 536 0
-253 -537 0
-253 538 0
-253 539 0
-253 540 0
-253 541 0
-253 542 0
-253 -543 0
-254 -536 0
-254 537 0
-254 538 0
-254 539 0
-254 540 0
-254 541 0
-254 542 0
-254 -543 0
-255 536 0
-255 537 0
-255 538 0
-255 539 0
-255 540 0
-255 541 0
-255 542 0
-255 -543 0
-264 -536 0
-264 -537 0
-264 -538 0
-264 -539 0
-264 -540 0
-264 -541 0
-264 -542 0
-264 543 0
-265 536 0
-265 -537 0
-265 -538 0
-265 -539 0
-265 -540 0
-265 -541 0
-265 -542 0
-265 543 0
-266 -536 0
-266 537 0
-266 -538 0
-266 -539 0
-266 -540 0
-266 -541 0
-266 -542 0
-266 543 0
-267 536 0
-267 537 0
-267 -538 0
-267 -539 0
-267 -540 0
-267 -541 0
-267 -542 0
-267 543 0
-268 -536 0
-268 -537 0
-268 538 0
-268 -539 0
-268 -540 0
-268 -541 0
-268 -542 0
-268 543 0
-269 536 0
-269 -537 0
-269 538 0
-269 -539 0
-269 -540 0
-269 -541 0
-269 -542 0
-269 543 0
-270 -536 0
-270 537 0
-270 538 0
-270 -539 0
-270 -540 0
-270 -541 0
-270 -542 0
-270 543 0
-271 536 0
-271 537 0
-271 538 0
-271 -539 0
-271 -540 0
-271 -541 0
-271 -542 0
-271 543 0
-280 -536 0
-280 -537 0
-280 -538 0
-280 539 0
-280 -540 0
-280 -541 0
-280 -542 0
-280 543 0
-281 536 0
-281 -537 0
-281 -538 0
-281 539 0
-281 -540 0
-281 -541 0
-281 -542 0
-281 543 0
-282 -536 0
-282 537 0
-282 -538 0
-282 539 0
-282 -540 0
-282 -541 0
-282 -542 0
-282 543 0
-283 536 0
-283 537 0
-283 -538 0
-283 539 0
-283 -540 0
-283 -541 0
-283 -542 0
-283 543 0
-284 -536 0
-284 -537 0
-284 538 0
-284 539 0
-284 -540 0
-284 -541 0
-284 -542 0
-284 543 0
-285 536 0
-285 -537 0
-285 538 0
-285 539 0
-285 -540 0
-285 -541 0
-285 -542 0
-285 543 0
-286 -536 0
-286 537 0
-286 538 0
-286 539 0
-286 -540 0
-286 -541 0
-286 -542 0
-286 543 0
-287 536 0
-287 537 0
-287 538 0
-287 539 0
-287 -540 0
-287 -541 0
-287 -542 0
-287 543 0
-296 -536 0
-296 -537 0
-296 -538 0
-296 -539 0
-296 540 0
-296 -541 0
-296 -542 0
-296 543 0
-297 536 0
-297 -537 0
-297 -538 0
-297 -539 0
-297 540 0
-297 -541 0
-297 -542 0
-297 543 0
-298 -536 0
-298 537 0
-298 -538 0
-298 -539 0
-298 540 0
-298 -541 0
-298 -542 0
-298 543 0
-299 536 0
-299 537 0
-299 -538 0
-299 -539 0
-299 540 0
-299 -541 0
-299 -542 0
-299 543 0
-300 -536 0
-300 -537 0
-300 538 0
-300 -539 0
-300 540 0
-300 -541 0
-300 -542 0
-300 543 0
-301 536 0
-301 -537 0
-301 538 0
-301 -539 0
-301 540 0
-301 -541 0
-301 -542 0
-301 543 0
-302 -536 0
-302 537 0
-302 538 0
-302 -539 0
-302 540 0
-302 -541 0
-302 -542 0
-302 543 0
-303 536 0
-303 537 0
-303 538 0
-303 -539 0
-303 540 0
-303 -541 0
-303 -542 0
-303 543 0
-312 -536 0
-312 -537 0
-312 -538 0
-312 539 0
-312 540 0
-312 -541 0
-312 -542 0
-312 543 0
-313 536 0
-313 -537 0
-313 -538 0
-313 539 0
-313 540 0
-313 -541 0
-313 -542 0
-313 543 0
-314 -536 0
-314 537 0
-314 -538 0
-314 539 0
-314 540 0
-314 -541 0
-314 -542 0
-314 543 0
-315 536 0
-315 537 0
-315 -538 0
-315 539 0
-315 540 0
-315 -541 0
-315 -542 0
-315 543 0
-316 -536 0
-316 -537 0
-316 538 0
-316 539 0
-316 540 0
-316 -541 0
-316 -542 0
-316 543 0
-317 536 0
-317 -537 0
-317 538 0
-317 539 0
-317 540 0
-317 -541 0
-317 -542 0
-317 543 0
-318 -536 0
-318 537 0
-318 538 0
-318 539 0
-318 540 0
-318 -541 0
-318 -542 0
-318 543 0
-319 536 0
-319 537 0
-319 538 0
-319 539 0
-319 540 0
-319 -541 0
-319 -542 0
-319 543 0
-328 -536 0
-328 -537 0
-328 -538 0
-328 -539 0
-328 -540 0
-328 541 0
-328 -542 0
-328 543 0
-329 536 0
-329 -537 0
-329 -538 0
-329 -539 0
-329 -540 0
-329 541 0
-329 -542 0
-329 543 0
-330 -536 0
-330 537 0
-330 -538 0
-330 -539 0
-330 -540 0
-330 541 0
-330 -542 0
-330 543 0
-331 536 0
-331 537 0
-331 -538 0
-331 -539 0
-331 -540 0
-331 541 0
-331 -542 0
-331 543 0
-332 -536 0
-332 -537 0
-332 538 0
-332 -539 0
-332 -540 0
-332 541 0
-332 -542 0
-332 543 0
-333 536 0
-333 -537 0
-333 538 0
-333 -539 0
-333 -540 0
-333 541 0
-333 -542 0
-333 543 0
-334 -536 0
-334 537 0
-334 538 0
-334 -539 0
-334 -540 0
-334 541 0
-334 -542 0
-334 543 0
-335 536 0
-335 537 0
-335 538 0
-335 -539 0
-335 -540 0
-335 541 0
-335 -542 0
-335 543 0
-344 -536 0
-344 -537 0
-344 -538 0
-344 539 0
-344 -540 0
-344 541 0
-344 -542 0
-344 543 0
-345 536 0
-345 -537 0
-345 -538 0
-345 539 0
-345 -540 0
-345 541 0
-345 -542 0
-345 543 0
-346 -536 0
-346 537 0
-346 -538 0
-346 539 0
-346 -540 0
-346 541 0
-346 -542 0
-346 543 0
-347 536 0
-347 537 0
-347 -538 0
-347 539 0
-347 -540 0
-347 541 0
-347 -542 0
-347 543 0
-348 -536 0
-348 -537 0
-348 538 0
-348 539 0
-348 -540 0
-348 541 0
-348 -542 0
-348 543 0
-349 536 0
-349 -537 0
-349 538 0
-349 539 0
-349 -540 0
-349 541 0
-349 -542 0
-349 543 0
-350 -536 0
-350 537 0
-350 538 0
-350 539 0
-350 -540 0
-350 541 0
-350 -542 0
-350 543 0
-351 536 0
-351 537 0
-351 538 0
-351 539 0
-351 -540 0
-351 541 0
-351 -542 0
-351 543 0
-360 -536 0
-360 -537 0
-360 -538 0
-360 -539 0
-360 540 0
-360 541 0
-360 -542 0
-360 543 0
-361 536 0
-361 -537 0
-361 -538 0
-361 -539 0
-361 540 0
-361 541 0
-361 -542 0
-361 543 0
-362 -536 0
-362 537 0
-362 -538 0
-362 -539 0
-362 540 0
-362 541 0
-362 -542 0
-362 543 0
-363 536 0
-363 537 0
-363 -538 0
-363 -539 0
-363 540 0
-363 541 0
-363 -542 0
-363 543 0
-364 -536 0
-364 -537 0
-364 538 0
-364 -539 0
-364 540 0
-364 541 0
-364 -542 0
-364 543 0
-365 536 0
-365 -537 0
-365 538 0
-365 -539 0
-365 540 0
-365 541 0
-365 -542 0
-365 543 0
-366 -536 0
-366 537 0
-366 538 0
-366 -539 0
-366 540 0
-366 541 0
-366 -542 0
-366 543 0
-367 536 0
-367 537 0
-367 538 0
-367 -539 0
-367 540 0
-367 541 0
-367 -542 0
-367 543 0
-376 -536 0
-376 -537 0
-376 -538 0
-376 539 0
-376 540 0
-376 541 0
-376 -542 0
-376 543 0
-377 536 0
-377 -537 0
-377 -538 0
-377 539 0
-377 540 0
-377 541 0
-377 -542 0
-377 543 0
-378 -536 0
-378 537 0
-378 -538 0
-378 539 0
-378 540 0
-378 541 0
-378 -542 0
-378 543 0
-379 536 0
-379 537 0
-379 -538 0
-379 539 0
-379 540 0
-379 541 0
-379 -542 0
-379 543 0
-380 -536 0
-380 -537 0
-380 538 0
-380 539 0
-380 540 0
-380 541 0
-380 -542 0
-380 543 0
-381 536 0
-381 -537 0
-381 538 0
-381 539 0
-381 540 0
-381 541 0
-381 -542 0
-381 543 0
-382 -536 0
-382 537 0
-382 538 0
-382 539 0
-382 540 0
-382 541 0
-382 -542 0
-382 543 0
-383 536 0
-383 537 0
-383 538 0
-383 539 0
-383 540 0
-383 541 0
-383 -542 0
-383 543 0
-392 -536 0
-392 -537 0
-392 -538 0
-392 -539 0
-392 -540 0
-392 -541 0
-392 542 0
-392 543 0
-393 536 0
-393 -537 0
-393 -538 0
-393 -539 0
-393 -540 0
-393 -541 0
-393 542 0
-393 543 0
-394 -536 0
-394 537 0
-394 -538 0
-394 -539 0
-394 -540 0
-394 -541 0
-394 542 0
-394 543 0
-395 536 0
-395 537 0
-395 -538 0
-395 -539 0
-395 -540 0
-395 -541 0
-395 542 0
-395 543 0
-396 -536 0
-396 -537 0
-396 538 0
-396 -539 0
-396 -540 0
-396 -541 0
-396 542 0
-396 543 0
-397 536 0
-397 -537 0
-397 538 0
-397 -539 0
-397 -540 0
-397 -541 0
-397 542 0
-397 543 0
-398 -536 0
-398 537 0
-398 538 0
-398 -539 0
-398 -540 0
-398 -541 0
-398 542 0
-398 543 0
-399 536 0
-399 537 0
-399 538 0
-399 -539 0
-399 -540 0
-399 -541 0
-399 542 0
-399 543 0
-408 -536 0
-408 -537 0
-408 -538 0
-408 539 0
-408 -540 0
-408 -541 0
-408 542 0
-408 543 0
-409 536 0
-409 -537 0
-409 -538 0
-409 539 0
-409 -540 0
-409 -541 0
-409 542 0
-409 543 0
-410 -536 0
-410 537 0
-410 -538 0
-410 539 0
-410 -540 0
-410 -541 0
-410 542 0
-410 543 0
-411 536 0
-411 537 0
-411 -538 0
-411 539 0
-411 -540 0
-411 -541 0
-411 542 0
-411 543 0
-412 -536 0
-412 -537 0
-412 538 0
-412 539 0
-412 -540 0
-412 -541 0
-412 542 0
-412 543 0
-413 536 0
-413 -537 0
-413 538 0
-413 539 0
-413 -540 0
-413 -541 0
-413 542 0
-413 543 0
-414 -536 0
-414 537 0
-414 538 0
-414 539 0
-414 -540 0
-414 -541 0
-414 542 0
-414 543 0
-415 536 0
-415 537 0
-415 538 0
-415 539 0
-415 -540 0
-415 -541 0
-415 542 0
-415 543 0
-424 -536 0
-424 -537 0
-424 -538 0
-424 -539 0
-424 540 0
-424 -541 0
-424 542 0
-424 543 0
-425 536 0
-425 -537 0
-425 -538 0
-425 -539 0
-425 540 0
-425 -541 0
-425 542 0
-425 543 0
-426 -536 0
-426 537 0
-426 -538 0
-426 -539 0
-426 540 0
-426 -541 0
-426 542 0
-426 543 0
-427 536 0
-427 537 0
-427 -538 0
-427 -539 0
-427 540 0
-427 -541 0
-427 542 0
-427 543 0
-428 -536 0
-428 -537 0
-428 538 0
-428 -539 0
-428 540 0
-428 -541 0
-428 542 0
-428 543 0
-429 536 0
-429 -537 0
-429 538 0
-429 -539 0
-429 540 0
-429 -541 0
-429 542 0
-429 543 0
-430 -536 0
-430 537 0
-430 538 0
-430 -539 0
-430 540 0
-430 -541 0
-430 542 0
-430 543 0
-431 536 0
-431 537 0
-431 538 0
-431 -539 0
-431 540 0
-431 -541 0
-431 542 0
-431 543 0
-440 -536 0
-440 -537 0
-440 -538 0
-440 539 0
-440 540 0
-440 -541 0
-440 542 0
-440 543 0
-441 536 0
-441 -537 0
-441 -538 0
-441 539 0
-441 540 0
-441 -541 0
-441 542 0
-441 543 0
-442 -536 0
-442 537 0
-442 -538 0
-442 539 0
-442 540 0
-442 -541 0
-442 542 0
-442 543 0
-443 536 0
-443 537 0
-443 -538 0
-443 539 0
-443 540 0
-443 -541 0
-443 542 0
-443 543 0
-444 -536 0
-444 -537 0
-444 538 0
-444 539 0
-444 540 0
-444 -541 0
-444 542 0
-444 543 0
-445 536 0
-445 -537 0
-445 538 0
-445 539 0
-445 540 0
-445 -541 0
-445 542 0
-445 543 0
-446 -536 0
-446 537 0
-446 538 0
-446 539 0
-446 540 0
-446 -541 0
-446 542 0
-446 543 0
-447 536 0
-447 537 0
-447 538 0
-447 539 0
-447 540 0
-447 -541 0
-447 542 0
-447 543 0
-456 -536 0
-456 -537 0
-456 -538 0
-456 -539 0
-456 -540 0
-456 541 0
-456 542 0
-456 543 0
-457 536 0
-457 -537 0
-457 -538 0
-457 -539 0
-457 -540 0
-457 541 0
-457 542 0
-457 543 0
-458 -536 0
-458 537 0
-458 -538 0
-458 -539 0
-458 -540 0
-458 541 0
-458 542 0
-458 543 0
-459 536 0
-459 537 0
-459 -538 0
-459 -539 0
-459 -540 0
-459 541 0
-459 542 0
-459 543 0
-460 -536 0
-460 -537 0
-460 538 0
-460 -539 0
-460 -540 0
-460 541 0
-460 542 0
-460 543 0
-461 536 0
-461 -537 0
-461 538 0
-461 -539 0
-461 -540 0
-461 541 0
-461 542 0
-461 543 0
-462 -536 0
-462 537 0
-462 538 0
-462 -539 0
-462 -540 0
-462 541 0
-462 542 0
-462 543 0
-463 536 0
-463 537 0
-463 538 0
-463 -539 0
-463 -540 0
-463 541 0
-463 542 0
-463 543 0
-472 -536 0
-472 -537 0
-472 -538 0
-472 539 0
-472 -540 0
-472 541 0
-472 542 0
-472 543 0
-473 536 0
-473 -537 0
-473 -538 0
-473 539 0
-473 -540 0
-473 541 0
-473 542 0
-473 543 0
-474 -536 0
-474 537 0
-474 -538 0
-474 539 0
-474 -540 0
-474 541 0
-474 542 0
-474 543 0
-475 536 0
-475 537 0
-475 -538 0
-475 539 0
-475 -540 0
-475 541 0
-475 542 0
-475 543 0
-476 -536 0
-476 -537 0
-476 538 0
-476 539 0
-476 -540 0
-476 541 0
-476 542 0
-476 543 0
-477 536 0
-477 -537 0
-477 538 0
-477 539 0
-477 -540 0
-477 541 0
-477 542 0
-477 543 0
-478 -536 0
-478 537 0
-478 538 0
-478 539 0
-478 -540 0
-478 541 0
-478 542 0
-478 543 0
-479 536 0
-479 537 0
-479 538 0
-479 539 0
-479 -540 0
-479 541 0
-479 542 0
-479 543 0
-488 -536 0
-488 -537 0
-488 -538 0
-488 -539 0
-488 540 0
-488 541 0
-488 542 0
-488 543 0
-489 536 0
-489 -537 0
-489 -538 0
-489 -539 0
-489 540 0
-489 541 0
-489 542 0
-489 543 0
-490 -536 0
-490 537 0
-490 -538 0
-490 -539 0
-490 540 0
-490 541 0
-490 542 0
-490 543 0
-491 536 0
-491 537 0
-491 -538 0
-491 -539 0
-491 540 0
-491 541 0
-491 542 0
-491 543 0
-492 -536 0
-492 -537 0
-492 538 0
-492 -539 0
-492 540 0
-492 541 0
-492 542 0
-492 543 0
-493 536 0
-493 -537 0
-493 538 0
-493 -539 0
-493 540 0
-493 541 0
-493 542 0
-493 543 0
-494 -536 0
-494 537 0
-494 538 0
-494 -539 0
-494 540 0
-494 541 0
-494 542 0
-494 543 0
-495 536 0
-495 537 0
-495 538 0
-495 -539 0
-495 540 0
-495 541 0
-495 542 0
-495 543 0
-504 -536 0
-504 -537 0
-504 -538 0
-504 539 0
-504 540 0
-504 541 0
-504 542 0
-504 543 0
-505 536 0
-505 -537 0
-505 -538 0
-505 539 0
-505 540 0
-505 541 0
-505 542 0
-505 543 0
-506 -536 0
-506 537 0
-506 -538 0
-506 539 0
-506 540 0
-506 541 0
-506 542 0
-506 543 0
-507 536 0
-507 537 0
-507 -538 0
-507 539 0
-507 540 0
-507 541 0
-507 542 0
-507 543 0
-508 -536 0
-508 -537 0
-508 538 0
-508 539 0
-508 540 0
-508 541 0
-508 542 0
-508 543 0
-509 536 0
-509 -537 0
-509 538 0
-509 539 0
-509 540 0
-509 541 0
-509 542 0
-509 543 0
-510 -536 0
-510 537 0
-510 538 0
-510 539 0
-510 540 0
-510 541 0
-510 542 0
-510 543 0
-511 536 0
-511 537 0
-511 538 0
-511 539 0
-511 540 0
-511 541 0
-511 542 0
-511 543 0
16 17 18 19 20 21 22 23 24 25 26 27 28 29 30 31 48 49 50 51 52 53 54 55 56 57 58 59 60 61 62 63 80 81 82 83 84 85 86 87 88 89 90 91 92 93 94 95 112 113 114 115 116 117 118 119 120 121 122 123 124 125 126 127 144 145 146 147 148 149 150 151 152 153 154 155 156 157 158 159 176 177 178 179 180 181 182 183 184 185 186 187 188 189 190 191 208 209 210 211 212 213 214 215 216 217 218 219 220 221 222 223 240 241 242 243 244 245 246 247 248 249 250 251 252 253 254 255 272 273 274 275 276 277 278 279 280 281 282 283 284 285 286 287 304 305 306 307 308 309 310 311 312 313 314 315 316 317 318 319 336 337 338 339 340 341 342 343 344 345 346 347 348 349 350 351 368 369 370 371 372 373 374 375 376 377 378 379 380 381 382 383 400 401 402 403 404 405 406 407 408 409 410 411 412 413 414 415 432 433 434 435 436 437 438 439 440 441 442 443 444 445 446 447 464 465 466 467 468 469 470 471 472 473 474 475 476 477 478 479 496 497 498 499 500 501 502 503 504 505 506 507 508 509 510 511 0
-16 -544 0
-16 -545 0
-16 -546 0
-16 -547 0
-16 -548 0
-16 -549 0
-16 -550 0
-16 -551 0
-17 544 0
-17 -545 0
-17 -546 0
-17 -547 0
-17 -548 0
-17 -549 0
-17 -550 0
-17 -551 0
-18 -544 0
-18 545 0
-18 -546 0
-18 -547 0
-18 -548 0
-18 -549 0
-18 -550 0
-18 -551 0
-19 544 0
-19 545 0
-19 -546 0
-19 -547 0
-19 -548 0
-19 -549 0
-19 -550 0
-19 -551 0
-20 -544 0
-20 -545 0
-20 546 0
-20 -547 0
-20 -548 0
-20 -549 0
-20 -550 0
-20 -551 0
-21 544 0
-21 -545 0
-21 546 0
-21 -547 0
-21 -548 0
-21 -549 0
-21 -550 0
-21 -551 0
-22 -544 0
-22 545 0
-22 546 0
-22 -547 0
-22 -548 0
-22 -549 0
-22 -550 0
-22 -551 0
-23 544 0
-23 545 0
-23 546 0
-23 -547 0
-23 -548 0
-23 -549 0
-23 -550 0
-23 -551 0
-24 -544 0
-24 -545 0
-24 -546 0
-24 547 0
-24 -548 0
-24 -549 0
-24 -550 0
-24 -551 0
-25 544 0
-25 -545 0
-25 -546 0
-25 547 0
-25 -548 0
-25 -549 0
-25 -550 0
-25 -551 0
-26 -544 0
-26 545 0
-26 -546 0
-26 547 0
-26 -548 0
-26 -549 0
-26 -550 0
-26 -551 0
-27 544 0
-27 545 0
-27 -546 0
-27 547 0
-27 -548 0
-27 -549 0
-27 -550 0
-27 -551 0
-28 -544 0
-28 -545 0
-28 546 0
-28 547 0
-28 -548 0
-28 -549 0
-28 -550 0
-28 -551 0
-29 544 0
-29 -545 0
-29 546 0
-29 547 0
-29 -548 0
-29 -549 0
-29 -550 0
-29 -551 0
-30 -544 0
-30 545 0
-30 546 0
-30 547 0
-30 -548 0
-30 -549 0
-30 -550 0
-30 -551 0
-31 544 0
-31 545 0
-31 546 0
-31 547 0
-31 -548 0
-31 -549 0
-31 -550 0
-31 -551 0
-48 -544 0
-48 -545 0
-48 -546 0
-48 -547 0
-48 548 0
-48 -549 0
-48 -550 0
-48 -551 0
-49 544 0
-49 -545 0
-49 -546 0
-49 -547 0
-49 548 0
-49 -549 0
-49 -550 0
-49 -551 0
-50 -544 0
-50 545 0
-50 -546 0
-50 -547 0
-50 548 0
-50 -549 0
-50 -550 0
-50 -551 0
-51 544 0
-51 545 0
-51 -546 0
-51 -547 0
-51 548 0
-51 -549 0
-51 -550 0
-51 -551 0
-52 -544 0
-52 -545 0
-52 546 0
-52 -547 0
-52 548 0
-52 -549 0
-52 -550 0
-52 -551 0
-53 544 0
-53 -545 0
-53 546 0
-53 -547 0
-53 548 0
-53 -549 0
-53 -550 0
-53 -551 0
-54 -544 0
-54 545 0
-54 546 0
-54 -547 0
-54 548 0
-54 -549 0
-54 -550 0
-54 -551 0
-55 544 0
-55 545 0
-55 546 0
-55 -547 0
-55 548 0
-55 -549 0
-55 -550 0
-55 -551 0
-56 -544 0
-56 -545 0
-56 -546 0
-56 547 0
-56 548 0
-56 -549 0
-56 -550 0
-56 -551 0
-57 544 0
-57 -545 0
-57 -546 0
-57 547 0
-57 548 0
-57 -549 0
-57 -550 0
-57 -551 0
-58 -544 0
-58 545 0
-58 -546 0
-58 547 0
-58 548 0
-58 -549 0
-58 -550 0
-58 -551 0
-59 544 0
-59 545 0
-59 -546 0
-59 547 0
-59 548 0
-59 -549 0
-59 -550 0
-59 -551 0
-60 -544 0
-60 -545 0
-60 546 0
-60 547 0
-60 548 0
-60 -549 0
-60 -550 0
-60 -551 0
-61 544 0
-61 -545 0
-61 546 0
-61 547 0
-61 548 0
-61 -549 0
-61 -550 0
-61 -551 0
-62 -544 0
-62 545 0
-62 546 0
-62 547 0
-62 548 0
-62 -549 0
-62 -550 0
-62 -551 0
-63 544 0
-63 545 0
-63 546 0
-63 547 0
-63 548 0
-63 -549 0
-63 -550 0
-63 -551 0
-80 -544 0
-80 -545 0
-80 -546 0
-80 -547 0
-80 -548 0
-80 549 0
-80 -550 0
-80 -551 0
-81 544 0
-81 -545 0
-81 -546 0
-81 -547 0
-81 -548 0
-81 549 0
-81 -550 0
-81 -551 0
-82 -544 0
-82 545 0
-82 -546 0
-82 -547 0
-82 -548 0
-82 549 0
-82 -550 0
-82 -551 0
-83 544 0
-83 545 0
-83 -546 0
-83 -547 0
-83 -548 0
-83 549 0
-83 -550 0
-83 -551 0
-84 -544 0
-84 -545 0
-84 546 0
-84 -547 0
-84 -548 0
-84 549 0
-84 -550 0
-84 -551 0
-85 544 0
-85 -545 0
-85 546 0
-85 -547 0
-85 -548 0
-85 549 0
-85 -550 0
-85 -551 0
-86 -544 0
-86 545 0
-86 546 0
-86 -547 0
-86 -548 0
-86 549 0
-86 -550 0
-86 -551 0
-87 544 0
-87 545 0
-87 546 0
-87 -547 0
-87 -548 0
-87 549 0
-87 -550 0
-87 -551 0
-88 -544 0
-88 -545 0
-88 -546 0
-88 547 0
-88 -548 0
-88 549 0
-88 -550 0
-88 -551 0
-89 544 0
-89 -545 0
-89 -546 0
-89 547 0
-89 -548 0
-89 549 0
-89 -550 0
-89 -551 0
-90 -544 0
-90 545 0
-90 -546 0
-90 547 0
-90 -548 0
-90 549 0
-90 -550 0
-90 -551 0
-91 544 0
-91 545 0
-91 -546 0
-91 547 0
-91 -548 0
-91 549 0
-91 -550 0
-91 -551 0
-92 -544 0
-92 -545 0
-92 546 0
-92 547 0
-92 -548 0
-92 549 0
-92 -550 0
-92 -551 0
-93 544 0
-93 -545 0
-93 546 0
-93 547 0
-93 -548 0
-93 549 0
-93 -550 0
-93 -551 0
-94 -544 0
-94 545 0
-94 546 0
-94 547 0
-94 -548 0
-94 549 0
-94 -550 0
-94 -551 0
-95 544 0
-95 545 0
-95 546 0
-95 547 0
-95 -548 0
-95 549 0
-95 -550 0
-95 -551 0
-112 -544 0
-112 -545 0
-112 -546 0
-112 -547 0
-112 548 0
-112 549 0
-112 -550 0
-112 -551 0
-113 544 0
-113 -545 0
-113 -546 0
-113 -547 0
-113 548 0
-113 549 0
-113 -550 0
-113 -551 0
-114 -544 0
-114 545 0
-114 -546 0
-114 -547 0
-114 548 0
-114 549 0
-114 -550 0
-114 -551 0
-115 544 0
-115 545 0
-115 -546 0
-115 -547 0
-115 548 0
-115 549 0
-115 -550 0
-115 -551 0
-116 -544 0
-116 -545 0
-116 546 0
-116 -547 0
-116 548 0
-116 549 0
-116 -550 0
-116 -551 0
-117 544 0
-117 -545 0
-117 546 0
-117 -547 0
-117 548 0
-117 549 0
-117 -550 0
-117 -551 0
-118 -544 0
-118 545 0
-118 546 0
-118 -547 0
-118 548 0
-118 549 0
-118 -550 0
-118 -551 0
-119 544 0
-119 545 0
-119 546 0
-119 -547 0
-119 548 0
-119 549 0
-119 -550 0
-119 -551 0
-120 -544 0
-120 -545 0
-120 -546 0
-120 547 0
-120 548 0
-120 549 0
-120 -550 0
-120 -551 0
-121 544 0
-121 -545 0
-121 -546 0
-121 547 0
-121 548 0
-121 549 0
-121 -550 0
-121 -551 0
-122 -544 0
-122 545 0
-122 -546 0
-122 547 0
-122 548 0
-122 549 0
-122 -550 0
-122 -551 0
-123 544 0
-123 545 0
-123 -546 0
-123 547 0
-123 548 0
-123 549 0
-123 -550 0
-123 -551 0
-124 -544 0
-124 -545 0
-124 546 0
-124 547 0
-124 548 0
-124 549 0
-124 -550 0
-124 -551 0
-125 544 0
-125 -545 0
-125 546 0
-125 547 0
-125 548 0
-125 549 0
-125 -550 0
-125 -551 0
-126 -544 0
-126 545 0
-126 546 0
-126 547 0
-126 548 0
-126 549 0
-126 -550 0
-126 -551 0
-127 544 0
-127 545 0
-127 546 0
-127 547 0
-127 548 0
-127 549 0
-127 -550 0
-127 -551 0
-144 -544 0
-144 -545 0
-144 -546 0
-144 -547 0
-144 -548 0
-144 -549 0
-144 550 0
-144 -551 0
-145 544 0
-145 -545 0
-145 -546 0
-145 -547 0
-145 -548 0
-145 -549 0
-145 550 0
-145 -551 0
-146 -544 0
-146 545 0
-146 -546 0
-146 -547 0
-146 -548 0
-146 -549 0
-146 550 0
-146 -551 0
-147 544 0
-147 545 0
-147 -546 0
-147 -547 0
-147 -548 0
-147 -549 0
-147 550 0
-147 -551 0
-148 -544 0
-148 -545 0
-148 546 0
-148 -547 0
-148 -548 0
-148 -549 0
-148 550 0
-148 -551 0
-149 544 0
-149 -545 0
-149 546 0
-149 -547 0
-149 -548 0
-149 -549 0
-149 550 0
-149 -551 0
-150 -544 0
-150 545 0
-150 546 0
-150 -547 0
-150 -548 0
-150 -549 0
-150 550 0
-150 -551 0
-151 544 0
-151 545 0
-151 546 0
-151 -547 0
-151 -548 0
-151 -549 0
-151 550 0
-151 -551 0
-152 -544 0
-152 -545 0
-152 -546 0
-152 547 0
-152 -548 0
-152 -549 0
-152 550 0
-152 -551 0
-153 544 0
-153 -545 0
-153 -546 0
-153 547 0
-153 -548 0
-153 -549 0
-153 550 0
-153 -551 0
-154 -544 0
-154 545 0
-154 -546 0
-154 547 0
-154 -548 0
-154 -549 0
-154 550 0
-154 -551 0
-155 544 0
-155 545 0
-155 -546 0
-155 547 0
-155 -548 0
-155 -549 0
-155 550 0
-155 -551 0
-156 -544 0
-156 -545 0
-156 546 0
-156 547 0
-156 -548 0
-156 -549 0
-156 550 0
-156 -551 0
-157 544 0
-157 -545 0
-157 546 0
-157 547 0
-157 -548 0
-157 -549 0
-157 550 0
-157 -551 0
-158 -544 0
-158 545 0
-158 546 0
-158 547 0
-158 -548 0
-158 -549 0
-158 550 0
-158 -551 0
-159 544 0
-159 545 0
-159 546 0
-159 547 0
-159 -548 0
-159 -549 0
-159 550 0
-159 -551 0
-176 -544 0
-176 -545 0
-176 -546 0
-176 -547 0
-176 548 0
-176 -549 0
-176 550 0
-176 -551 0
-177 544 0
-177 -545 0
-177 -546 0
-177 -547 0
-177 548 0
-177 -549 0
-177 550 0
-177 -551 0
-178 -544 0
-178 545 0
-178 -546 0
-178 -547 0
-178 548 0
-178 -549 0
-178 550 0
-178 -551 0
-179 544 0
-179 545 0
-179 -546 0
-179 -547 0
-179 548 0
-179 -549 0
-179 550 0
-179 -551 0
-180 -544 0
-180 -545 0
-180 546 0
-180 -547 0
-180 548 0
-180 -549 0
-180 550 0
-180 -551 0
-181 544 0
-181 -545 0
-181 546 0
-181 -547 0
-181 548 0
-181 -549 0
-181 550 0
-181 -551 0
-182 -544 0
-182 545 0
-182 546 0
-182 -547 0
-182 548 0
-182 -549 0
-182 550 0
-182 -551 0
-183 544 0
-183 545 0
-183 546 0
-183 -547 0
-183 548 0
-183 -549 0
-183 550 0
-183 -551 0
-184 -544 0
-184 -545 0
-184 -546 0
-184 547 0
-184 548 0
-184 -549 0
-184 550 0
-184 -551 0
-185 544 0
-185 -545 0
-185 -546 0
-185 547 0
-185 548 0
-185 -549 0
-185 550 0
-185 -551 0
-186 -544 0
-186 545 0
-186 -546 0
-186 547 0
-186 548 0
-186 -549 0
-186 550 0
-186 -551 0
-187 544 0
-187 545 0
-187 -546 0
-187 547 0
-187 548 0
-187 -549 0
-187 550 0
-187 -551 0
-188 -544 0
-188 -545 0
-188 546 0
-188 547 0
-188 548 0
-188 -549 0
-188 550 0
-188 -551 0
-189 544 0
-189 -545 0
-189 546 0
-189 547 0
-189 548 0
-189 -549 0
-189 550 0
-189 -551 0
-190 -544 0
-190 545 0
-190 546 0
-190 547 0
-190 548 0
-190 -549 0
-190 550 0
-190 -551 0
-191 544 0
-191 545 0
-191 546 0
-191 547 0
-191 548 0
-191 -549 0
-191 550 0
-191 -551 0
-208 -544 0
-208 -545 0
-208 -546 0
-208 -547 0
-208 -548 0
-208 549 0
-208 550 0
-208 -551 0
-209 544 0
-209 -545 0
-209 -546 0
-209 -547 0
-209 -548 0
-209 549 0
-209 550 0
-209 -551 0
-210 -544 0
-210 545 0
-210 -546 0
-210 -547 0
-210 -548 0
-210 549 0
-210 550 0
-210 -551 0
-211 544 0
-211 545 0
-211 -546 0
-211 -547 0
-211 -548 0
-211 549 0
-211 550 0
-211 -551 0
-212 -544 0
-212 -545 0
-212 546 0
-212 -547 0
-212 -548 0
-212 549 0
-212 550 0
-212 -551 0
-213 544 0
-213 -545 0
-213 546 0
-213 -547 0
-213 -548 0
-213 549 0
-213 550 0
-213 -551 0
-214 -544 0
-214 545 0
-214 546 0
-214 -547 0
-214 -548 0
-214 549 0
-214 550 0
-214 -551 0
-215 544 0
-215 545 0
-215 546 0
-215 -547 0
-215 -548 0
-215 549 0
-215 550 0
-215 -551 0
-216 -544 0
-216 -545 0
-216 -546 0
-216 547 0
-216 -548 0
-216 549 0
-216 550 0
-216 -551 0
-217 544 0
-217 -545 0
-217 -546 0
-217 547 0
-217 -548 0
-217 549 0
-217 550 0
-217 -551 0
-218 -544 0
-218 545 0
-218 -546 0
-218 547 0
-218 -548 0
-218 549 0
-218 550 0
-218 -551 0
-219 544 0
-219 545 0
-219 -546 0
-219 547 0
-219 -548 0
-219 549 0
-219 550 0
-219 -551 0
-220 -544 0
-220 -545 0
-220 546 0
-220 547 0
-220 -548 0
-220 549 0
-220 550 0
-220 -551 0
-221 544 0
-221 -545 0
-221 546 0
-221 547 0
-221 -548 0
-221 549 0
-221 550 0
-221 -551 0
-222 -544 0
-222 545 0
-222 546 0
-222 547 0
-222 -548 0
-222 549 0
-222 550 0
-222 -551 0
-223 544 0
-223 545 0
-223 546 0
-223 547 0
-223 -548 0
-223 549 0
-223 550 0
-223 -551 0
-240 -544 0
-240 -545 0
-240 -546 0
-240 -547 0
-240 548 0
-240 549 0
-240 550 0
-240 -551 0
-241 544 0
-241 -545 0
-241 -546 0
-241 -547 0
-241 548 0
-241 549 0
-241 550 0
-241 -551 0
-242 -544 0
-242 545 0
-242 -546 0
-242 -547 0
-242 548 0
-242 549 0
-242 550 0
-242 -551 0
-243 544 0
-243 545 0
-243 -546 0
-243 -547 0
-243 548 0
-243 549 0
-243 550 0
-243 -551 0
-244 -544 0
-244 -545 0
-244 546 0
-244 -547 0
-244 548 0
-244 549 0
-244 550 0
-244 -551 0
-245 544 0
-245 -545 0
-245 546 0
-245 -547 0
-245 548 0
-245 549 0
-245 550 0
-245 -551 0
-246 -544 0
-246 545 0
-246 546 0
-246 -547 0
-246 548 0
-246 549 0
-246 550 0
-246 -551 0
-247 544 0
-247 545 0
-247 546 0
-247 -547 0
-247 548 0
-247 549 0
-247 550 0
-247 -551 0
-248 -544 0
-248 -545 0
-248 -546 0
-248 547 0
-248 548 0
-248 549 0
-248 550 0
-248 -551 0
-249 544 0
-249 -545 0
-249 -546 0
-249 547 0
-249 548 0
-249 549 0
-249 550 0
-249 -551 0
-250 -544 0
-250 545 0
-250 -546 0
-250 547 0
-250 548 0
-250 549 0
-250 550 0
-250 -551 0
-251 544 0
-251 545 0
-251 -546 0
-251 547 0
-251 548 0
-251 549 0
-251 550 0
-251 -551 0
-252 -544 0
-252 -545 0
-252 546 0
-252 547 0
-252 548 0
-252 549 0
-252 550 0
-252 -551 0
-253 544 0
-253 -545 0
-253 546 0
-253 547 0
-253 548 0
-253 549 0
-253 550 0
-253 -551 0
-254 -544 0
-254 545 0
-254 546 0
-254 547 0
-254 548 0
-254 549 0
-254 550 0
-254 -551 0
-255 544 0
-255 545 0
-255 546 0
-255 547 0
-255 548 0
-255 549 0
-255 550 0
-255 -551 0
-272 -544 0
-272 -545 0
-272 -546 0
-272 -547 0
-272 -548 0
-272 -549 0
-272 -550 0
-272 551 0
-273 544 0
-273 -545 0
-273 -546 0
-273 -547 0
-273 -548 0
-273 -549 0
-273 -550 0
-273 551 0
-274 -544 0
-274 545 0
-274 -546 0
-274 -547 0
-274 -548 0
-274 -549 0
-274 -550 0
-274 551 0
-275 544 0
-275 545 0
-275 -546 0
-275 -547 0
-275 -548 0
-275 -549 0
-275 -550 0
-275 551 0
-276 -544 0
-276 -545 0
-276 546 0
-276 -547 0
-276 -548 0
-276 -549 0
-276 -550 0
-276 551 0
-277 544 0
-277 -545 0
-277 546 0
-277 -547 0
-277 -548 0
-277 -549 0
-277 -550 0
-277 551 0
-278 -544 0
-278 545 0
-278 546 0
-278 -547 0
-278 -548 0
-278 -549 0
-278 -550 0
-278 551 0
-279 544 0
-279 545 0
-279 546 0
-279 -547 0
-279 -548 0
-279 -549 0
-279 -550 0
-279 551 0
-280 -544 0
-280 -545 0
-280 -546 0
-280 547 0
-280 -548 0
-280 -549 0
-280 -550 0
-280 551 0
-281 544 0
-281 -545 0
-281 -546 0
-281 547 0
-281 -548 0
-281 -549 0
-281 -550 0
-281 551 0
-282 -544 0
-282 545 0
-282 -546 0
-282 547 0
-282 -548 0
-282 -549 0
-282 -550 0
-282 551 0
-283 544 0
-283 545 0
-283 -546 0
-283 547 0
-283 -548 0
-283 -549 0
-283 -550 0
-283 551 0
-284 -544 0
-284 -545 0
-284 546 0
-284 547 0
-284 -548 0
-284 -549 0
-284 -550 0
-284 551 0
-285 544 0
-285 -545 0
-285 546 0
-285 547 0
-285 -548 0
-285 -549 0
-285 -550 0
-285 551 0
-286 -544 0
-286 545 0
-286 546 0
-286 547 0
-286 -548 0
-286 -549 0
-286 -550 0
-286 551 0
-287 544 0
-287 545 0
-287 546 0
-287 547 0
-287 -548 0
-287 -549 0
-287 -550 0
-287 551 0
-304 -544 0
-304 -545 0
-304 -546 0
-304 -547 0
-304 548 0
-304 -549 0
-304 -550 0
-304 551 0
-305 544 0
-305 -545 0
-305 -546 0
-305 -547 0
-305 548 0
-305 -549 0
-305 -550 0
-305 551 0
-306 -544 0
-306 545 0
-306 -546 0
-306 -547 0
-306 548 0
-306 -549 0
-306 -550 0
-306 551 0
-307 544 0
-307 545 0
-307 -546 0
-307 -547 0
-307 548 0
-307 -549 0
-307 -550 0
-307 551 0
-308 -544 0
-308 -545 0
-308 546 0
-308 -547 0
-308 548 0
-308 -549 0
-308 -550 0
-308 551 0
-309 544 0
-309 -545 0
-309 546 0
-309 -547 0
-309 548 0
-309 -549 0
-309 -550 0
-309 551 0
-310 -544 0
-310 545 0
-310 546 0
-310 -547 0
-310 548 0
-310 -549 0
-310 -550 0
-310 551 0
-311 544 0
-311 545 0
-311 546 0
-311 -547 0
-311 548 0
-311 -549 0
-311 -550 0
-311 551 0
-312 -544 0
-312 -545 0
-312 -546 0
-312 547 0
-312 548 0
-312 -549 0
-312 -550 0
-312 551 0
-313 544 0
-313 -545 0
-313 -546 0
-313 547 0
-313 548 0
-313 -549 0
-313 -550 0
-313 551 0
-314 -544 0
-314 545 0
-314 -546 0
-314 547 0
-314 548 0
-314 -549 0
-314 -550 0
-314 551 0
-315 544 0
-315 545 0
-315 -546 0
-315 547 0
-315 548 0
-315 -549 0
-315 -550 0
-315 551 0
-316 -544 0
-316 -545 0
-316 546 0
-316 547 0
-316 548 0
-316 -549 0
-316 -550 0
-316 551 0
-317 544 0
-317 -545 0
-317 546 0
-317 547 0
-317 548 0
-317 -549 0
-317 -550 0
-317 551 0
-318 -544 0
-318 545 0
-318 546 0
-318 547 0
-318 548 0
-318 -549 0
-318 -550 0
-318 551 0
-319 544 0
-319 545 0
-319 546 0
-319 547 0
-319 548 0
-319 -549 0
-319 -550 0
-319 551 0
-336 -544 0
-336 -545 0
-336 -546 0
-336 -547 0
-336 -548 0
-336 549 0
-336 -550 0
-336 551 0
-337 544 0
-337 -545 0
-337 -546 0
-337 -547 0
-337 -548 0
-337 549 0
-337 -550 0
-337 551 0
-338 -544 0
-338 545 0
-338 -546 0
-338 -547 0
-338 -548 0
-338 549 0
-338 -550 0
-338 551 0
-339 544 0
-339 545 0
-339 -546 0
-339 -547 0
-339 -548 0
-339 549 0
-339 -550 0
-339 551 0
-340 -544 0
-340 -545 0
-340 546 0
-340 -547 0
-340 -548 0
-340 549 0
-340 -550 0
-340 551 0
-341 544 0
-341 -545 0
-341 546 0
-341 -547 0
-341 -548 0
-341 549 0
-341 -550 0
-341 551 0
-342 -544 0
-342 545 0
-342 546 0
-342 -547 0
-342 -548 0
-342 549 0
-342 -550 0
-342 551 0
-343 544 0
-343 545 0
-343 546 0
-343 -547 0
-343 -548 0
-343 549 0
-343 -550 0
-343 551 0
-344 -544 0
-344 -545 0
-344 -546 0
-344 547 0
-344 -548 0
-344 549 0
-344 -550 0
-344 551 0
-345 544 0
-345 -545 0
-345 -546 0
-345 547 0
-345 -548 0
-345 549 0
-345 -550 0
-345 551 0
-346 -544 0
-346 545 0
-346 -546 0
-346 547 0
-346 -548 0
-346 549 0
-346 -550 0
-346 551 0
-347 544 0
-347 545 0
-347 -546 0
-347 547 0
-347 -548 0
-347 549 0
-347 -550 0
-347 551 0
-348 -544 0
-348 -545 0
-348 546 0
-348 547 0
-348 -548 0
-348 549 0
-348 -550 0
-348 551 0
-349 544 0
-349 -545 0
-349 546 0
-349 547 0
-349 -548 0
-349 549 0
-349 -550 0
-349 551 0
-350 -544 0
-350 545 0
-350 546 0
-350 547 0
-350 -548 0
-350 549 0
-350 -550 0
-350 551 0
-351 544 0
-351 545 0
-351 546 0
-351 547 0
-351 -548 0
-351 549 0
-351 -550 0
-351 551 0
-368 -544 0
-368 -545 0
-368 -546 0
-368 -547 0
-368 548 0
-368 549 0
-368 -550 0
-368 551 0
-369 544 0
-369 -545 0
-369 -546 0
-369 -547 0
-369 548 0
-369 549 0
-369 -550 0
-369 551 0
-370 -544 0
-370 545 0
-370 -546 0
-370 -547 0
-370 548 0
-370 549 0
-370 -550 0
-370 551 0
-371 544 0
-371 545 0
-371 -546 0
-371 -547 0
-371 548 0
-371 549 0
-371 -550 0
-371 551 0
-372 -544 0
-372 -545 0
-372 546 0
-372 -547 0
-372 548 0
-372 549 0
-372 -550 0
-372 551 0
-373 544 0
-373 -545 0
-373 546 0
-373 -547 0
-373 548 0
-373 549 0
-373 -550 0
-373 551 0
-374 -544 0
-374 545 0
-374 546 0
-374 -547 0
-374 548 0
-374 549 0
-374 -550 0
-374 551 0
-375 544 0
-375 545 0
-375 546 0
-375 -547 0
-375 548 0
-375 549 0
-375 -550 0
-375 551 0
-376 -544 0
-376 -545 0
-376 -546 0
-376 547 0
-376 548 0
-376 549 0
-376 -550 0
-376 551 0
-377 544 0
-377 -545 0
-377 -546 0
-377 547 0
-377 548 0
-377 549 0
-377 -550 0
-377 551 0
-378 -544 0
-378 545 0
-378 -546 0
-378 547 0
-378 548 0
-378 549 0
-378 -550 0
-378 551 0
-379 544 0
-379 545 0
-379 -546 0
-379 547 0
-379 548 0
-379 549 0
-379 -550 0
-379 551 0
-380 -544 0
-380 -545 0
-380 546 0
-380 547 0
-380 548 0
-380 549 0
-380 -550 0
-380 551 0
-381 544 0
-381 -545 0
-381 546 0
-381 547 0
-381 548 0
-381 549 0
-381 -550 0
-381 551 0
-382 -544 0
-382 545 0
-382 546 0
-382 547 0
-382 548 0
-382 549 0
-382 -550 0
-382 551 0
-383 544 0
-383 545 0
-383 546 0
-383 547 0
-383 548 0
-383 549 0
-383 -550 0
-383 551 0
-400 -544 0
-400 -545 0
-400 -546 0
-400 -547 0
-400 -548 0
-400 -549 0
-400 550 0
-400 551 0
-401 544 0
-401 -545 0
-401 -546 0
-401 -547 0
-401 -548 0
-401 -549 0
-401 550 0
-401 551 0
-402 -544 0
-402 545 0
-402 -546 0
-402 -547 0
-402 -548 0
-402 -549 0
-402 550 0
-402 551 0
-403 544 0
-403 545 0
-403 -546 0
-403 -547 0
-403 -548 0
-403 -549 0
-403 550 0
-403 551 0
-404 -544 0
-404 -545 0
-404 546 0
-404 -547 0
-404 -548 0
-404 -549 0
-404 550 0
-404 551 0
-405 544 0
-405 -545 0
-405 546 0
-405 -547 0
-405 -548 0
-405 -549 0
-405 550 0
-405 551 0
-406 -544 0
-406 545 0
-406 546 0
-406 -547 0
-406 -548 0
-406 -549 0
-406 550 0
-406 551 0
-407 544 0
-407 545 0
-407 546 0
-407 -547 0
-407 -548 0
-407 -549 0
-407 550 0
-407 551 0
-408 -544 0
-408 -545 0
-408 -546 0
-408 547 0
-408 -548 0
-408 -549 0
-408 550 0
-408 551 0
-409 544 0
-409 -545 0
-409 -546 0
-409 547 0
-409 -548 0
-409 -549 0
-409 550 0
-409 551 0
-410 -544 0
-410 545 0
-410 -546 0
-410 547 0
-410 -548 0
-410 -549 0
-410 550 0
-410 551 0
-411 544 0
-411 545 0
-411 -546 0
-411 547 0
-411 -548 0
-411 -549 0
-411 550 0
-411 551 0
-412 -544 0
-412 -545 0
-412 546 0
-412 547 0
-412 -548 0
-412 -549 0
-412 550 0
-412 551 0
-413 544 0
-413 -545 0
-413 546 0
-413 547 0
-413 -548 0
-413 -549 0
-413 550 0
-413 551 0
-414 -544 0
-414 545 0
-414 546 0
-414 547 0
-414 -548 0
-414 -549 0
-414 550 0
-414 551 0
-415 544 0
-415 545 0
-415 546 0
-415 547 0
-415 -548 0
-415 -549 0
-415 550 0
-415 551 0
-432 -544 0
-432 -545 0
-432 -546 0
-432 -547 0
-432 548 0
-432 -549 0
-432 550 0
-432 551 0
-433 544 0
-433 -545 0
-433 -546 0
-433 -547 0
-433 548 0
-433 -549 0
-433 550 0
-433 551 0
-434 -544 0
-434 545 0
-434 -546 0
-434 -547 0
-434 548 0
-434 -549 0
-434 550 0
-434 551 0
-435 544 0
-435 545 0
-435 -546 0
-435 -547 0
-435 548 0
-435 -549 0
-435 550 0
-435 551 0
-436 -544 0
-436 -545 0
-436 546 0
-436 -547 0
-436 548 0
-436 -549 0
-436 550 0
-436 551 0
-437 544 0
-437 -545 0
-437 546 0
-437 -547 0
-437 548 0
-437 -549 0
-437 550 0
-437 551 0
-438 -544 0
-438 545 0
-438 546 0
-438 -547 0
-438 548 0
-438 -549 0
-438 550 0
-438 551 0
-439 544 0
-439 545 0
-439 546 0
-439 -547 0
-439 548 0
-439 -549 0
-439 550 0
-439 551 0
-440 -544 0
-440 -545 0
-440 -546 0
-440 547 0
-440 548 0
-440 -549 0
-440 550 0
-440 551 0
-441 544 0
-441 -545 0
-441 -546 0
-441 547 0
-441 548 0
-441 -549 0
-441 550 0
-441 551 0
-442 -544 0
-442 545 0
-442 -546 0
-442 547 0
-442 548 0
-442 -549 0
-442 550 0
-442 551 0
-443 544 0
-443 545 0
-443 -546 0
-443 547 0
-443 548 0
-443 -549 0
-443 550 0
-443 551 0
-444 -544 0
-444 -545 0
-444 546 0
-444 547 0
-444 548 0
-444 -549 0
-444 550 0
-444 551 0
-445 544 0
-445 -545 0
-445 546 0
-445 547 0
-445 548 0
-445 -549 0
-445 550 0
-445 551 0
-446 -544 0
-446 545 0
-446 546 0
-446 547 0
-446 548 0
-446 -549 0
-446 550 0
-446 551 0
-447 544 0
-447 545 0
-447 546 0
-447 547 0
-447 548 0
-447 -549 0
-447 550 0
-447 551 0
-464 -544 0
-464 -545 0
-464 -546 0
-464 -547 0
-464 -548 0
-464 549 0
-464 550 0
-464 551 0
-465 544 0
-465 -545 0
-465 -546 0
-465 -547 0
-465 -548 0
-465 549 0
-465 550 0
-465 551 0
-466 -544 0
-466 545 0
-466 -546 0
-466 -547 0
-466 -548 0
-466 549 0
-466 550 0
-466 551 0
-467 544 0
-467 545 0
-467 -546 0
-467 -547 0
-467 -548 0
-467 549 0
-467 550 0
-467 551 0
-468 -544 0
-468 -545 0
-468 546 0
-468 -547 0
-468 -548 0
-468 549 0
-468 550 0
-468 551 0
-469 544 0
-469 -545 0
-469 546 0
-469 -547 0
-469 -548 0
-469 549 0
-469 550 0
-469 551 0
-470 -544 0
-470 545 0
-470 546 0
-470 -547 0
-470 -548 0
-470 549 0
-470 550 0
-470 551 0
-471 544 0
-471 545 0
-471 546 0
-471 -547 0
-471 -548 0
-471 549 0
-471 550 0
-471 551 0
-472 -544 0
-472 -545 0
-472 -546 0
-472 547 0
-472 -548 0
-472 549 0
-472 550 0
-472 551 0
-473 544 0
-473 -545 0
-473 -546 0
-473 547 0
-473 -548 0
-473 549 0
-473 550 0
-473 551 0
-474 -544 0
-474 545 0
-474 -546 0
-474 547 0
-474 -548 0
-474 549 0
-474 550 0
-474 551 0
-475 544 0
-475 545 0
-475 -546 0
-475 547 0
-475 -548 0
-475 549 0
-475 550 0
-475 551 0
-476 -544 0
-476 -545 0
-476 546 0
-476 547 0
-476 -548 0
-476 549 0
-476 550 0
-476 551 0
-477 544 0
-477 -545 0
-477 546 0
-477 547 0
-477 -548 0
-477 549 0
-477 550 0
-477 551 0
-478 -544 0
-478 545 0
-478 546 0
-478 547 0
-478 -548 0
-478 549 0
-478 550 0
-478 551 0
-479 544 0
-479 545 0
-479 546 0
-479 547 0
-479 -548 0
-479 549 0
-479 550 0
-479 551 0
-496 -544 0
-496 -545 0
-496 -546 0
-496 -547 0
-496 548 0
-496 549 0
-496 550 0
-496 551 0
-497 544 0
-497 -545 0
-497 -546 0
-497 -547 0
-497 548 0
-497 549 0
-497 550 0
-497 551 0
-498 -544 0
-498 545 0
-498 -546 0
-498 -547 0
-498 548 0
-498 549 0
-498 550 0
-498 551 0
-499 544 0
-499 545 0
-499 -546 0
-499 -547 0
-499 548 0
-499 549 0
-499 550 0
-499 551 0
-500 -544 0
-500 -545 0
-500 546 0
-500 -547 0
-500 548 0
-500 549 0
-500 550 0
-500 551 0
-501 544 0
-501 -545 0
-501 546 0
-501 -547 0
-501 548 0
-501 549 0
-501 550 0
-501 551 0
-502 -544 0
-502 545 0
-502 546 0
-502 -547 0
-502 548 0
-502 549 0
-502 550 0
-502 551 0
-503 544 0
-503 545 0
-503 546 0
-503 -547 0
-503 548 0
-503 549 0
-503 550 0
-503 551 0
-504 -544 0
-504 -545 0
-504 -546 0
-504 547 0
-504 548 0
-504 549 0
-504 550 0
-504 551 0
-505 544 0
-505 -545 0
-505 -546 0
-505 547 0
-505 548 0
-505 549 0
-505 550 0
-505 551 0
-506 -544 0
-506 545 0
-506 -546 0
-506 547 0
-506 548 0
-506 549 0
-506 550 0
-506 551 0
-507 544 0
-507 545 0
-507 -546 0
-507 547 0
-507 548 0
-507 549 0
-507 550 0
-507 551 0
-508 -544 0
-508 -545 0
-508 546 0
-508 547 0
-508 548 0
-508 549 0
-508 550 0
-508 551 0
-509 544 0
-509 -545 0
-509 546 0
-509 547 0
-509 548 0
-509 549 0
-509 550 0
-509 551 0
-510 -544 0
-510 545 0
-510 546 0
-510 547 0
-510 548 0
-510 549 0
-510 550 0
-510 551 0
-511 544 0
-511 545 0
-511 546 0
-511 547 0
-511 548 0
-511 549 0
-511 550 0
-511 551 0
32 33 34 35 36 37 38 39 40 41 42 43 44 45 46 47 48 49 50 51 52 53 54 55 56 57 58 59 60 61 62 63 96 97 98 99 100 101 102 103 104 105 106 107 108 109 110 111 112 113 114 115 116 117 118 119 120 121 122 123 124 125 126 127 160 161 162 163 164 165 166 167 168 169 170 171 172 173 174 175 176 177 178 179 180 181 182 183 184 185 186 187 188 189 190 191 224 225 226 227 228 229 230 231 232 233 234 235 236 237 238 239 240 241 242 243 244 245 246 247 248 249 250 251 252 253 254 255 288 289 290 291 292 293 294 295 296 297 298 299 300 301 302 303 304 305 306 307 308 309 310 311 312 313 314 315 316 317 318 319 352 353 354 355 356 357 358 359 360 361 362 363 364 365 366 367 368 369 370 371 372 373 374 375 376 377 378 379 380 381 382 383 416 417 418 419 420 421 422 423 424 425 426 427 428 429 430 431 432 433 434 435 436 437 438 439 440 441 442 443 444 445 446 447 480 481 482 483 484 485 486 487 488 489 490 491 492 493 494 495 496 497 498 499 500 501 502 503 504 505 506 507 508 509 510 511 0
-32 -552 0
-32 -553 0
-32 -554 0
-32 -555 0
-32 -556 0
-32 -557 0
-32 -558 0
-32 -559 0
-33 552 0
-33 -553 0
-33 -554 0
-33 -555 0
-33 -556 0
-33 -557 0
-33 -558 0
-33 -559 0
-34 -552 0
-34 553 0
-34 -554 0
-34 -555 0
-34 -556 0
-34 -557 0
-34 -558 0
-34 -559 0
-35 552 0
-35 553 0
-35 -554 0
-35 -555 0
-35 -556 0
-35 -557 0
-35 -558 0
-35 -559 0
-36 -552 0
-36 -553 0
-36 554 0
-36 -555 0
-36 -556 0
-36 -557 0
-36 -558 0
-36 -559 0
-37 552 0
-37 -553 0
-37 554 0
-37 -555 0
-37 -556 0
-37 -557 0
-37 -558 0
-37 -559 0
-38 -552 0
-38 553 0
-38 554 0
-38 -555 0
-38 -556 0
-38 -557 0
-38 -558 0
-38 -559 0
-39 552 0
-39 553 0
-39 554 0
-39 -555 0
-39 -556 0
-39 -557 0
-39 -558 0
-39 -559 0
-40 -552 0
-40 -553 0
-40 -554 0
-40 555 0
-40 -556 0
-40 -557 0
-40 -558 0
-40 -559 0
-41 552 0
-41 -553 0
-41 -554 0
-41 555 0
-41 -556 0
-41 -557 0
-41 -558 0
-41 -559 0
-42 -552 0
-42 553 0
-42 -554 0
-42 555 0
-42 -556 0
-42 -557 0
-42 -558 0
-42 -559 0
-43 552 0
-43 553 0
-43 -554 0
-43 555 0
-43 -556 0
-43 -557 0
-43 -558 0
-43 -559 0
-44 -552 0
-44 -553 0
-44 554 0
-44 555 0
-44 -556 0
-44 -557 0
-44 -558 0
-44 -559 0
-45 552 0
-45 -553 0
-45 554 0
-45 555 0
-45 -556 0
-45 -557 0
-45 -558 0
-45 -559 0
-46 -552 0
-46 553 0
-46 554 0
-46 555 0
-46 -556 0
-46 -557 0
-46 -558 0
-46 -559 0
-47 552 0
-47 553 0
-47 554 0
-47 555 0
-47 -556 0
-47 -557 0
-47 -558 0
-47 -559 0
-48 -552 0
-48 -553 0
-48 -554 0
-48 -555 0
-48 556 0
-48 -557 0
-48 -558 0
-48 -559 0
-49 552 0
-49 -553 0
-49 -554 0
-49 -555 0
-49 556 0
-49 -557 0
-49 -558 0
-49 -559 0
-50 -552 0
-50 553 0
-50 -554 0
-50 -555 0
-50 556 0
-50 -557 0
-50 -558 0
-50 -559 0
-51 552 0
-51 553 0
-51 -554 0
-51 -555 0
-51 556 0
-51 -557 0
-51 -558 0
-51 -559 0
-52 -552 0
-52 -553 0
-52 554 0
-52 -555 0
-52 556 0
-52 -557 0
-52 -558 0
-52 -559 0
-53 552 0
-53 -553 0
-53 554 0
-53 -555 0
-53 556 0
-53 -557 0
-53 -558 0
-53 -559 0
-54 -552 0
-54 553 0
-54 554 0
-54 -555 0
-54 556 0
-54 -557 0
-54 -558 0
-54 -559 0
-55 552 0
-55 553 0
-55 554 0
-55 -555 0
-55 556 0
-55 -557 0
-55 -558 0
-55 -559 0
-56 -552 0
-56 -553 0
-56 -554 0
-56 555 0
-56 556 0
-56 -557 0
-56 -558 0
-56 -559 0
-57 552 0
-57 -553 0
-57 -554 0
-57 555 0
-57 556 0
-57 -557 0
-57 -558 0
-57 -559 0
-58 -552 0
-58 553 0
-58 -554 0
-58 555 0
-58 556 0
-58 -557 0
-58 -558 0
-58 -559 0
-59 552 0
-59 553 0
-59 -554 0
-59 555 0
-59 556 0
-59 -557 0
-59 -558 0
-59 -559 0
-60 -552 0
-60 -553 0
-60 554 0
-60 555 0
-60 556 0
-60 -557 0
-60 -558 0
-60 -559 0
-61 552 0
-61 -553 0
-61 554 0
-61 555 0
-61 556 0
-61 -557 0
-61 -558 0
-61 -559 0
-62 -552 0
-62 553 0
-62 554 0
-62 555 0
-62 556 0
-62 -557 0
-62 -558 0
-62 -559 0
-63 552 0
-63 553 0
-63 554 0
-63 555 0
-63 556 0
-63 -557 0
-63 -558 0
-63 -559 0
-96 -552 0
-96 -553 0
-96 -554 0
-96 -555 0
-96 -556 0
-96 557 0
-96 -558 0
-96 -559 0
-97 552 0
-97 -553 0
-97 -554 0
-97 -555 0
-97 -556 0
-97 557 0
-97 -558 0
-97 -559 0
-98 -552 0
-98 553 0
-98 -554 0
-98 -555 0
-98 -556 0
-98 557 0
-98 -558 0
-98 -559 0
-99 552 0
-99 553 0
-99 -554 0
-99 -555 0
-99 -556 0
-99 557 0
-99 -558 0
-99 -559 0
-100 -552 0
-100 -553 0
-100 554 0
-100 -555 0
-100 -556 0
-100 557 0
-100 -558 0
-100 -559 0
-101 552 0
-101 -553 0
-101 554 0
-101 -555 0
-101 -556 0
-101 557 0
-101 -558 0
-101 -559 0
-102 -552 0
-102 553 0
-102 554 0
-102 -555 0
-102 -556 0
-102 557 0
-102 -558 0
-102 -559 0
-103 552 0
-103 553 0
-103 554 0
-103 -555 0
-103 -556 0
-103 557 0
-103 -558 0
-103 -559 0
-104 -552 0
-104 -553 0
-104 -554 0
-104 555 0
-104 -556 0
-104 557 0
-104 -558 0
-104 -559 0
-105 552 0
-105 -553 0
-105 -554 0
-105 555 0
-105 -556 0
-105 557 0
-105 -558 0
-105 -559 0
-106 -552 0
-106 553 0
-106 -554 0
-106 555 0
-106 -556 0
-106 557 0
-106 -558 0
-106 -559 0
-107 552 0
-107 553 0
-107 -554 0
-107 555 0
-107 -556 0
-107 557 0
-107 -558 0
-107 -559 0
-108 -552 0
-108 -553 0
-108 554 0
-108 555 0
-108 -556 0
-108 557 0
-108 -558 0
-108 -559 0
-109 552 0
-109 -553 0
-109 554 0
-109 555 0
-109 -556 0
-109 557 0
-109 -558 0
-109 -559 0
-110 -552 0
-110 553 0
-110 554 0
-110 555 0
-110 -556 0
-110 557 0
-110 -558 0
-110 -559 0
-111 552 0
-111 553 0
-111 554 0
-111 555 0
-111 -556 0
-111 557 0
-111 -558 0
-111 -559 0
-112 -552 0
-112 -553 0
-112 -554 0
-112 -555 0
-112 556 0
-112 557 0
-112 -558 0
-112 -559 0
-113 552 0
-113 -553 0
-113 -554 0
-113 -555 0
-113 556 0
-113 557 0
-113 -558 0
-113 -559 0
-114 -552 0
-114 553 0
-114 -554 0
-114 -555 0
-114 556 0
-114 557 0
-114 -558 0
-114 -559 0
-115 552 0
-115 553 0
-115 -554 0
-115 -555 0
-115 556 0
-115 557 0
-115 -558 0
-115 -559 0
-116 -552 0
-116 -553 0
-116 554 0
-116 -555 0
-116 556 0
-116 557 0
-116 -558 0
-116 -559 0
-117 552 0
-117 -553 0
-117 554 0
-117 -555 0
-117 556 0
-117 557 0
-117 -558 0
-117 -559 0
-118 -552 0
-118 553 0
-118 554 0
-118 -555 0
-118 556 0
-118 557 0
-118 -558 0
-118 -559 0
-119 552 0
-119 553 0
-119 554 0
-119 -555 0
-119 556 0
-119 557 0
-119 -558 0
-119 -559 0
-120 -552 0
-120 -553 0
-120 -554 0
-120 555 0
-120 556 0
-120 557 0
-120 -558 0
-120 -559 0
-121 552 0
-121 -553 0
-121 -554 0
-121 555 0
-121 556 0
-121 557 0
-121 -558 0
-121 -559 0
-122 -552 0
-122 553 0
-122 -554 0
-122 555 0
-122 556 0
-122 557 0
-122 -558 0
-122 -559 0
-123 552 0
-123 553 0
-123 -554 0
-123 555 0
-123 556 0
-123 557 0
-123 -558 0
-123 -559 0
-124 -552 0
-124 -553 0
-124 554 0
-124 555 0
-124 556 0
-124 557 0
-124 -558 0
-124 -559 0
-125 552 0
-125 -553 0
-125 554 0
-125 555 0
-125 556 0
-125 557 0
-125 -558 0
-125 -559 0
-126 -552 0
-126 553 0
-126 554 0
-126 555 0
-126 556 0
-126 557 0
-126 -558 0
-126 -559 0
-127 552 0
-127 553 0
-127 554 0
-127 555 0
-127 556 0
-127 557 0
-127 -558 0
-127 -559 0
-160 -552 0
-160 -553 0
-160 -554 0
-160 -555 0
-160 -556 0
-160 -557 0
-160 558 0
-160 -559 0
-161 552 0
-161 -553 0
-161 -554 0
-161 -555 0
-161 -556 0
-161 -557 0
-161 558 0
-161 -559 0
-162 -552 0
-162 553 0
-162 -554 0
-162 -555 0
-162 -556 0
-162 -557 0
-162 558 0
-162 -559 0
-163 552 0
-163 553 0
-163 -554 0
-163 -555 0
-163 -556 0
-163 -557 0
-163 558 0
-163 -559 0
-164 -552 0
-164 -553 0
-164 554 0
-164 -555 0
-164 -556 0
-164 -557 0
-164 558 0
-164 -559 0
-165 552 0
-165 -553 0
-165 554 0
-165 -555 0
-165 -556 0
-165 -557 0
-165 558 0
-165 -559 0
-166 -552 0
-166 553 0
-166 554 0
-166 -555 0
-166 -556 0
-166 -557 0
-166 558 0
-166 -559 0
-167 552 0
-167 553 0
-167 554 0
-167 -555 0
-167 -556 0
-167 -557 0
-167 558 0
-167 -559 0
-168 -552 0
-168 -553 0
-168 -554 0
-168 555 0
-168 -556 0
-168 -557 0
-168 558 0
-168 -559 0
-169 552 0
-169 -553 0
-169 -554 0
-169 555 0
-169 -556 0
-169 -557 0
-169 558 0
-169 -559 0
-170 -552 0
-170 553 0
-170 -554 0
-170 555 0
-170 -556 0
-170 -557 0
-170 558 0
-170 -559 0
-171 552 0
-171 553 0
-171 -554 0
-171 555 0
-171 -556 0
-171 -557 0
-171 558 0
-171 -559 0
-172 -552 0
-172 -553 0
-172 554 0
-172 555 0
-172 -556 0
-172 -557 0
-172 558 0
-172 -559 0
-173 552 0
-173 -553 0
-173 554 0
-173 555 0
-173 -556 0
-173 -557 0
-173 558 0
-173 -559 0
-174 -552 0
-174 553 0
-174 554 0
-174 555 0
-174 -556 0
-174 -557 0
-174 558 0
-174 -559 0
-175 552 0
-175 553 0
-175 554 0
-175 555 0
-175 -556 0
-175 -557 0
-175 558 0
-175 -559 0
-176 -552 0
-176 -553 0
-176 -554 0
-176 -555 0
-176 556 0
-176 -557 0
-176 558 0
-176 -559 0
-177 552 0
-177 -553 0
-177 -554 0
-177 -555 0
-177 556 0
-177 -557 0
-177 558 0
-177 -559 0
-178 -552 0
-178 553 0
-178 -554 0
-178 -555 0
-178 556 0
-178 -557 0
-178 558 0
-178 -559 0
-179 552 0
-179 553 0
-179 -554 0
-179 -555 0
-179 556 0
-179 -557 0
-179 558 0
-179 -559 0
-180 -552 0
-180 -553 0
-180 554 0
-180 -555 0
-180 556 0
-180 -557 0
-180 558 0
-180 -559 0
-181 552 0
-181 -553 0
-181 554 0
-181 -555 0
-181 556 0
-181 -557 0
-181 558 0
-181 -559 0
-182 -552 0
-182 553 0
-182 554 0
-182 -555 0
-182 556 0
-182 -557 0
-182 558 0
-182 -559 0
-183 552 0
-183 553 0
-183 554 0
-183 -555 0
-183 556 0
-183 -557 0
-183 558 0
-183 -559 0
-184 -552 0
-184 -553 0
-184 -554 0
-184 555 0
-184 556 0
-184 -557 0
-184 558 0
-184 -559 0
-185 552 0
-185 -553 0
-185 -554 0
-185 555 0
-185 556 0
-185 -557 0
-185 558 0
-185 -559 0
-186 -552 0
-186 553 0
-186 -554 0
-186 555 0
-186 556 0
-186 -557 0
-186 558 0
-186 -559 0
-187 552 0
-187 553 0
-187 -554 0
-187 555 0
-187 556 0
-187 -557 0
-187 558 0
-187 -559 0
-188 -552 0
-188 -553 0
-188 554 0
-188 555 0
-188 556 0
-188 -557 0
-188 558 0
-188 -559 0
-189 552 0
-189 -553 0
-189 554 0
-189 555 0
-189 556 0
-189 -557 0
-189 558 0
-189 -559 0
-190 -552 0
-190 553 0
-190 554 0
-190 555 0
-190 556 0
-190 -557 0
-190 558 0
-190 -559 0
-191 552 0
-191 553 0
-191 554 0
-191 555 0
-191 556 0
-191 -557 0
-191 558 0
-191 -559 0
-224 -552 0
-224 -553 0
-224 -554 0
-224 -555 0
-224 -556 0
-224 557 0
-224 558 0
-224 -559 0
-225 552 0
-225 -553 0
-225 -554 0
-225 -555 0
-225 -556 0
-225 557 0
-225 558 0
-225 -559 0
-226 -552 0
-226 553 0
-226 -554 0
-226 -555 0
-226 -556 0
-226 557 0
-226 558 0
-226 -559 0
-227 552 0
-227 553 0
-227 -554 0
-227 -555 0
-227 -556 0
-227 557 0
-227 558 0
-227 -559 0
-228 -552 0
-228 -553 0
-228 554 0
-228 -555 0
-228 -556 0
-228 557 0
-228 558 0
-228 -559 0
-229 552 0
-229 -553 0
-229 554 0
-229 -555 0
-229 -556 0
-229 557 0
-229 558 0
-229 -559 0
-230 -552 0
-230 553 0
-230 554 0
-230 -555 0
-230 -556 0
-230 557 0
-230 558 0
-230 -559 0
-231 552 0
-231 553 0
-231 554 0
-231 -555 0
-231 -556 0
-231 557 0
-231 558 0
-231 -559 0
-232 -552 0
-232 -553 0
-232 -554 0
-232 555 0
-232 -556 0
-232 557 0
-232 558 0
-232 -559 0
-233 552 0
-233 -553 0
-233 -554 0
-233 555 0
-233 -556 0
-233 557 0
-233 558 0
-233 -559 0
-234 -552 0
-234 553 0
-234 -554 0
-234 555 0
-234 -556 0
-234 557 0
-234 558 0
-234 -559 0
-235 552 0
-235 553 0
-235 -554 0
-235 555 0
-235 -556 0
-235 557 0
-235 558 0
-235 -559 0
-236 -552 0
-236 -553 0
-236 554 0
-236 555 0
-236 -556 0
-236 557 0
-236 558 0
-236 -559 0
-237 552 0
-237 -553 0
-237 554 0
-237 555 0
-237 -556 0
-237 557 0
-237 558 0
-237 -559 0
-238 -552 0
-238 553 0
-238 554 0
-238 555 0
-238 -556 0
-238 557 0
-238 558 0
-238 -559 0
-239 552 0
-239 553 0
-239 554 0
-239 555 0
-239 -556 0
-239 557 0
-239 558 0
-239 -559 0
-240 -552 0
-240 -553 0
-240 -554 0
-240 -555 0
-240 556 0
-240 557 0
-240 558 0
-240 -559 0
-241 552 0
-241 -553 0
-241 -554 0
-241 -555 0
-241 556 0
-241 557 0
-241 558 0
-241 -559 0
-242 -552 0
-242 553 0
-242 -554 0
-242 -555 0
-242 556 0
-242 557 0
-242 558 0
-242 -559 0
-243 552 0
-243 553 0
-243 -554 0
-243 -555 0
-243 556 0
-243 557 0
-243 558 0
-243 -559 0
-244 -552 0
-244 -553 0
-244 554 0
-244 -555 0
-244 556 0
-244 557 0
-244 558 0
-244 -559 0
-245 552 0
-245 -553 0
-245 554 0
-245 -555 0
-245 556 0
-245 557 0
-245 558 0
-245 -559 0
-246 -552 0
-246 553 0
-246 554 0
-246 -555 0
-246 556 0
-246 557 0
-246 558 0
-246 -559 0
-247 552 0
-247 553 0
-247 554 0
-247 -555 0
-247 556 0
-247 557 0
-247 558 0
-247 -559 0
-248 -552 0
-248 -553 0
-248 -554 0
-248 555 0
-248 556 0
-248 557 0
-248 558 0
-248 -559 0
-249 552 0
-249 -553 0
-249 -554 0
-249 555 0
-249 556 0
-249 557 0
-249 558 0
-249 -559 0
-250 -552 0
-250 553 0
-250 -554 0
-250 555 0
-250 556 0
-250 557 0
-250 558 0
-250 -559 0
-251 552 0
-251 553 0
-251 -554 0
-251 555 0
-251 556 0
-251 557 0
-251 558 0
-251 -559 0
-252 -552 0
-252 -553 0
-252 554 0
-252 555 0
-252 556 0
-252 557 0
-252 558 0
-252 -559 0
-253 552 0
-253 -553 0
-253 554 0
-253 555 0
-253 556 0
-253 557 0
-253 558 0
-253 -559 0
-254 -552 0
-254 553 0
-254 554 0
-254 555 0
-254 556 0
-254 557 0
-254 558 0
-254 -559 0
-255 552 0
-255 553 0
-255 554 0
-255 555 0
-255 556 0
-255 557 0
-255 558 0
-255 -559 0
-288 -552 0
-288 -553 0
-288 -554 0
-288 -555 0
-288 -556 0
-288 -557 0
-288 -558 0
-288 559 0
-289 552 0
-289 -553 0
-289 -554 0
-289 -555 0
-289 -556 0
-289 -557 0
-289 -558 0
-289 559 0
-290 -552 0
-290 553 0
-290 -554 0
-290 -555 0
-290 -556 0
-290 -557 0
-290 -558 0
-290 559 0
-291 552 0
-291 553 0
-291 -554 0
-291 -555 0
-291 -556 0
-291 -557 0
-291 -558 0
-291 559 0
-292 -552 0
-292 -553 0
-292 554 0
-292 -555 0
-292 -556 0
-292 -557 0
-292 -558 0
-292 559 0
-293 552 0
-293 -553 0
-293 554 0
-293 -555 0
-293 -556 0
-293 -557 0
-293 -558 0
-293 559 0
-294 -552 0
-294 553 0
-294 554 0
-294 -555 0
-294 -556 0
-294 -557 0
-294 -558 0
-294 559 0
-295 552 0
-295 553 0
-295 554 0
-295 -555 0
-295 -556 0
-295 -557 0
-295 -558 0
-295 559 0
-296 -552 0
-296 -553 0
-296 -554 0
-296 555 0
-296 -556 0
-296 -557 0
-296 -558 0
-296 559 0
-297 552 0
-297 -553 0
-297 -554 0
-297 555 0
-297 -556 0
-297 -557 0
-297 -558 0
-297 559 0
-298 -552 0
-298 553 0
-298 -554 0
-298 555 0
-298 -556 0
-298 -557 0
-298 -558 0
-298 559 0
-299 552 0
-299 553 0
-299 -554 0
-299 555 0
-299 -556 0
-299 -557 0
-299 -558 0
-299 559 0
-300 -552 0
-300 -553 0
-300 554 0
-300 555 0
-300 -556 0
-300 -557 0
-300 -558 0
-300 559 0
-301 552 0
-301 -553 0
-301 554 0
-301 555 0
-301 -556 0
-301 -557 0
-301 -558 0
-301 559 0
-302 -552 0
-302 553 0
-302 554 0
-302 555 0
-302 -556 0
-302 -557 0
-302 -558 0
-302 559 0
-303 552 0
-303 553 0
-303 554 0
-303 555 0
-303 -556 0
-303 -557 0
-303 -558 0
-303 559 0
-304 -552 0
-304 -553 0
-304 -554 0
-304 -555 0
-304 556 0
-304 -557 0
-304 -558 0
-304 559 0
-305 552 0
-305 -553 0
-305 -554 0
-305 -555 0
-305 556 0
-305 -557 0
-305 -558 0
-305 559 0
-306 -552 0
-306 553 0
-306 -554 0
-306 -555 0
-306 556 0
-306 -557 0
-306 -558 0
-306 559 0
-307 552 0
-307 553 0
-307 -554 0
-307 -555 0
-307 556 0
-307 -557 0
-307 -558 0
-307 559 0
-308 -552 0
-308 -553 0
-308 554 0
-308 -555 0
-308 556 0
-308 -557 0
-308 -558 0
-308 559 0
-309 552 0
-309 -553 0
-309 554 0
-309 -555 0
-309 556 0
-309 -557 0
-309 -558 0
-309 559 0
-310 -552 0
-310 553 0
-310 554 0
-310 -555 0
-310 556 0
-310 -557 0
-310 -558 0
-310 559 0
-311 552 0
-311 553 0
-311 554 0
-311 -555 0
-311 556 0
-311 -557 0
-311 -558 0
-311 559 0
-312 -552 0
-312 -553 0
-312 -554 0
-312 555 0
-312 556 0
-312 -557 0
-312 -558 0
-312 559 0
-313 552 0
-313 -553 0
-313 -554 0
-313 555 0
-313 556 0
-313 -557 0
-313 -558 0
-313 559 0
-314 -552 0
-314 553 0
-314 -554 0
-314 555 0
-314 556 0
-314 -557 0
-314 -558 0
-314 559 0
-315 552 0
-315 553 0
-315 -554 0
-315 555 0
-315 556 0
-315 -557 0
-315 -558 0
-315 559 0
-316 -552 0
-316 -553 0
-316 554 0
-316 555 0
-316 556 0
-316 -557 0
-316 -558 0
-316 559 0
-317 552 0
-317 -553 0
-317 554 0
-317 555 0
-317 556 0
-317 -557 0
-317 -558 0
-317 559 0
-318 -552 0
-318 553 0
-318 554 0
-318 555 0
-318 556 0
-318 -557 0
-318 -558 0
-318 559 0
-319 552 0
-319 553 0
-319 554 0
-319 555 0
-319 556 0
-319 -557 0
-319 -558 0
-319 559 0
-352 -552 0
-352 -553 0
-352 -554 0
-352 -555 0
-352 -556 0
-352 557 0
-352 -558 0
-352 559 0
-353 552 0
-353 -553 0
-353 -554 0
-353 -555 0
-353 -556 0
-353 557 0
-353 -558 0
-353 559 0
-354 -552 0
-354 553 0
-354 -554 0
-354 -555 0
-354 -556 0
-354 557 0
-354 -558 0
-354 559 0
-355 552 0
-355 553 0
-355 -554 0
-355 -555 0
-355 -556 0
-355 557 0
-355 -558 0
-355 559 0
-356 -552 0
-356 -553 0
-356 554 0
-356 -555 0
-356 -556 0
-356 557 0
-356 -558 0
-356 559 0
-357 552 0
-357 -553 0
-357 554 0
-357 -555 0
-357 -556 0
-357 557 0
-357 -558 0
-357 559 0
-358 -552 0
-358 553 0
-358 554 0
-358 -555 0
-358 -556 0
-358 557 0
-358 -558 0
-358 559 0
-359 552 0
-359 553 0
-359 554 0
-359 -555 0
-359 -556 0
-359 557 0
-359 -558 0
-359 559 0
-360 -552 0
-360 -553 0
-360 -554 0
-360 555 0
-360 -556 0
-360 557 0
-360 -558 0
-360 559 0
-361 552 0
-361 -553 0
-361 -554 0
-361 555 0
-361 -556 0
-361 557 0
-361 -558 0
-361 559 0
-362 -552 0
-362 553 0
-362 -554 0
-362 555 0
-362 -556 0
-362 557 0
-362 -558 0
-362 559 0
-363 552 0
-363 553 0
-363 -554 0
-363 555 0
-363 -556 0
-363 557 0
-363 -558 0
-363 559 0
-364 -552 0
-364 -553 0
-364 554 0
-364 555 0
-364 -556 0
-364 557 0
-364 -558 0
-364 559 0
-365 552 0
-365 -553 0
-365 554 0
-365 555 0
-365 -556 0
-365 557 0
-365 -558 0
-365 559 0
-366 -552 0
-366 553 0
-366 554 0
-366 555 0
-366 -556 0
-366 557 0
-366 -558 0
-366 559 0
-367 552 0
-367 553 0
-367 554 0
-367 555 0
-367 -556 0
-367 557 0
-367 -558 0
-367 559 0
-368 -552 0
-368 -553 0
-368 -554 0
-368 -555 0
-368 556 0
-368 557 0
-368 -558 0
-368 559 0
-369 552 0
-369 -553 0
-369 -554 0
-369 -555 0
-369 556 0
-369 557 0
-369 -558 0
-369 559 0
-370 -552 0
-370 553 0
-370 -554 0
-370 -555 0
-370 556 0
-370 557 0
-370 -558 0
-370 559 0
-371 552 0
-371 553 0
-371 -554 0
-371 -555 0
-371 556 0
-371 557 0
-371 -558 0
-371 559 0
-372 -552 0
-372 -553 0
-372 554 0
-372 -555 0
-372 556 0
-372 557 0
-372 -558 0
-372 559 0
-373 552 0
-373 -553 0
-373 554 0
-373 -555 0
-373 556 0
-373 557 0
-373 -558 0
-373 559 0
-374 -552 0
-374 553 0
-374 554 0
-374 -555 0
-374 556 0
-374 557 0
-374 -558 0
-374 559 0
-375 552 0
-375 553 0
-375 554 0
-375 -555 0
-375 556 0
-375 557 0
-375 -558 0
-375 559 0
-376 -552 0
-376 -553 0
-376 -554 0
-376 555 0
-376 556 0
-376 557 0
-376 -558 0
-376 559 0
-377 552 0
-377 -553 0
-377 -554 0
-377 555 0
-377 556 0
-377 557 0
-377 -558 0
-377 559 0
-378 -552 0
-378 553 0
-378 -554 0
-378 555 0
-378 556 0
-378 557 0
-378 -558 0
-378 559 0
-379 552 0
-379 553 0
-379 -554 0
-379 555 0
-379 556 0
-379 557 0
-379 -558 0
-379 559 0
-380 -552 0
-380 -553 0
-380 554 0
-380 555 0
-380 556 0
-380 557 0
-380 -558 0
-380 559 0
-381 552 0
-381 -553 0
-381 554 0
-381 555 0
-381 556 0
-381 557 0
-381 -558 0
-381 559 0
-382 -552 0
-382 553 0
-382 554 0
-382 555 0
-382 556 0
-382 557 0
-382 -558 0
-382 559 0
-383 552 0
-383 553 0
-383 554 0
-383 555 0
-383 556 0
-383 557 0
-383 -558 0
-383 559 0
-416 -552 0
-416 -553 0
-416 -554 0
-416 -555 0
-416 -556 0
-416 -557 0
-416 558 0
-416 559 0
-417 552 0
-417 -553 0
-417 -554 0
-417 -555 0
-417 -556 0
-417 -557 0
-417 558 0
-417 559 0
-418 -552 0
-418 553 0
-418 -554 0
-418 -555 0
-418 -556 0
-418 -557 0
-418 558 0
-418 559 0
-419 552 0
-419 553 0
-419 -554 0
-419 -555 0
-419 -556 0
-419 -557 0
-419 558 0
-419 559 0
-420 -552 0
-420 -553 0
-420 554 0
-420 -555 0
-420 -556 0
-420 -557 0
-420 558 0
-420 559 0
-421 552 0
-421 -553 0
-421 554 0
-421 -555 0
-421 -556 0
-421 -557 0
-421 558 0
-421 559 0
-422 -552 0
-422 553 0
-422 554 0
-422 -555 0
-422 -556 0
-422 -557 0
-422 558 0
-422 559 0
-423 552 0
-423 553 0
-423 554 0
-423 -555 0
-423 -556 0
-423 -557 0
-423 558 0
-423 559 0
-424 -552 0
-424 -553 0
-424 -554 0
-424 555 0
-424 -556 0
-424 -557 0
-424 558 0
-424 559 0
-425 552 0
-425 -553 0
-425 -554 0
-425 555 0
-425 -556 0
-425 -557 0
-425 558 0
-425 559 0
-426 -552 0
-426 553 0
-426 -554 0
-426 555 0
-426 -556 0
-426 -557 0
-426 558 0
-426 559 0
-427 552 0
-427 553 0
-427 -554 0
-427 555 0
-427 -556 0
-427 -557 0
-427 558 0
-427 559 0
-428 -552 0
-428 -553 0
-428 554 0
-428 555 0
-428 -556 0
-428 -557 0
-428 558 0
-428 559 0
-429 552 0
-429 -553 0
-429 554 0
-429 555 0
-429 -556 0
-429 -557 0
-429 558 0
-429 559 0
-430 -552 0
-430 553 0
-430 554 0
-430 555 0
-430 -556 0
-430 -557 0
-430 558 0
-430 559 0
-431 552 0
-431 553 0
-431 554 0
-431 555 0
-431 -556 0
-431 -557 0
-431 558 0
-431 559 0
-432 -552 0
-432 -553 0
-432 -554 0
-432 -555 0
-432 556 0
-432 -557 0
-432 558 0
-432 559 0
-433 552 0
-433 -553 0
-433 -554 0
-433 -555 0
-433 556 0
-433 -557 0
-433 558 0
-433 559 0
-434 -552 0
-434 553 0
-434 -554 0
-434 -555 0
-434 556 0
-434 -557 0
-434 558 0
-434 559 0
-435 552 0
-435 553 0
-435 -554 0
-435 -555 0
-435 556 0
-435 -557 0
-435 558 0
-435 559 0
-436 -552 0
-436 -553 0
-436 554 0
-436 -555 0
-436 556 0
-436 -557 0
-436 558 0
-436 559 0
-437 552 0
-437 -553 0
-437 554 0
-437 -555 0
-437 556 0
-437 -557 0
-437 558 0
-437 559 0
-438 -552 0
-438 553 0
-438 554 0
-438 -555 0
-438 556 0
-438 -557 0
-438 558 0
-438 559 0
-439 552 0
-439 553 0
-439 554 0
-439 -555 0
-439 556 0
-439 -557 0
-439 558 0
-439 559 0
-440 -552 0
-440 -553 0
-440 -554 0
-440 555 0
-440 556 0
-440 -557 0
-440 558 0
-440 559 0
-441 552 0
-441 -553 0
-441 -554 0
-441 555 0
-441 556 0
-441 -557 0
-441 558 0
-441 559 0
-442 -552 0
-442 553 0
-442 -554 0
-442 555 0
-442 556 0
-442 -557 0
-442 558 0
-442 559 0
-443 552 0
-443 553 0
-443 -554 0
-443 555 0
-443 556 0
-443 -557 0
-443 558 0
-443 559 0
-444 -552 0
-444 -553 0
-444 554 0
-444 555 0
-444 556 0
-444 -557 0
-444 558 0
-444 559 0
-445 552 0
-445 -553 0
-445 554 0
-445 555 0
-445 556 0
-445 -557 0
-445 558 0
-445 559 0
-446 -552 0
-446 553 0
-446 554 0
-446 555 0
-446 556 0
-446 -557 0
-446 558 0
-446 559 0
-447 552 0
-447 553 0
-447 554 0
-447 555 0
-447 556 0
-447 -557 0
-447 558 0
-447 559 0
-480 -552 0
-480 -553 0
-480 -554 0
-480 -555 0
-480 -556 0
-480 557 0
-480 558 0
-480 559 0
-481 552 0
-481 -553 0
-481 -554 0
-481 -555 0
-481 -556 0
-481 557 0
-481 558 0
-481 559 0
-482 -552 0
-482 553 0
-482 -554 0
-482 -555 0
-482 -556 0
-482 557 0
-482 558 0
-482 559 0
-483 552 0
-483 553 0
-483 -554 0
-483 -555 0
-483 -556 0
-483 557 0
-483 558 0
-483 559 0
-484 -552 0
-484 -553 0
-484 554 0
-484 -555 0
-484 -556 0
-484 557 0
-484 558 0
-484 559 0
-485 552 0
-485 -553 0
-485 554 0
-485 -555 0
-485 -556 0
-485 557 0
-485 558 0
-485 559 0
-486 -552 0
-486 553 0
-486 554 0
-486 -555 0
-486 -556 0
-486 557 0
-486 558 0
-486 559 0
-487 552 0
-487 553 0
-487 554 0
-487 -555 0
-487 -556 0
-487 557 0
-487 558 0
-487 559 0
-488 -552 0
-488 -553 0
-488 -554 0
-488 555 0
-488 -556 0
-488 557 0
-488 558 0
-488 559 0
-489 552 0
-489 -553 0
-489 -554 0
-489 555 0
-489 -556 0
-489 557 0
-489 558 0
-489 559 0
-490 -552 0
-490 553 0
-490 -554 0
-490 555 0
-490 -556 0
-490 557 0
-490 558 0
-490 559 0
-491 552 0
-491 553 0
-491 -554 0
-491 555 0
-491 -556 0
-491 557 0
-491 558 0
-491 559 0
-492 -552 0
-492 -553 0
-492 554 0
-492 555 0
-492 -556 0
-492 557 0
-492 558 0
-492 559 0
-493 552 0
-493 -553 0
-493 554 0
-493 555 0
-493 -556 0
-493 557 0
-493 558 0
-493 559 0
-494 -552 0
-494 553 0
-494 554 0
-494 555 0
-494 -556 0
-494 557 0
-494 558 0
-494 559 0
-495 552 0
-495 553 0
-495 554 0
-495 555 0
-495 -556 0
-495 557 0
-495 558 0
-495 559 0
-496 -552 0
-496 -553 0
-496 -554 0
-496 -555 0
-496 556 0
-496 557 0
-496 558 0
-496 559 0
-497 552 0
-497 -553 0
-497 -554 0
-497 -555 0
-497 556 0
-497 557 0
-497 558 0
-497 559 0
-498 -552 0
-498 553 0
-498 -554 0
-498 -555 0
-498 556 0
-498 557 0
-498 558 0
-498 559 0
-499 552 0
-499 553 0
-499 -554 0
-499 -555 0
-499 556 0
-499 557 0
-499 558 0
-499 559 0
-500 -552 0
-500 -553 0
-500 554 0
-500 -555 0
-500 556 0
-500 557 0
-500 558 0
-500 559 0
-501 552 0
-501 -553 0
-501 554 0
-501 -555 0
-501 556 0
-501 557 0
-501 558 0
-501 559 0
-502 -552 0
-502 553 0
-502 554 0
-502 -555 0
-502 556 0
-502 557 0
-502 558 0
-502 559 0
-503 552 0
-503 553 0
-503 554 0
-503 -555 0
-503 556 0
-503 557 0
-503 558 0
-503 559 0
-504 -552 0
-504 -553 0
-504 -554 0
-504 555 0
-504 556 0
-504 557 0
-504 558 0
-504 559 0
-505 552 0
-505 -553 0
-505 -554 0
-505 555 0
-505 556 0
-505 557 0
-505 558 0
-505 559 0
-506 -552 0
-506 553 0
-506 -554 0
-506 555 0
-506 556 0
-506 557 0
-506 558 0
-506 559 0
-507 552 0
-507 553 0
-507 -554 0
-507 555 0
-507 556 0
-507 557 0
-507 558 0
-507 559 0
-508 -552 0
-508 -553 0
-508 554 0
-508 555 0
-508 556 0
-508 557 0
-508 558 0
-508 559 0
-509 552 0
-509 -553 0
-509 554 0
-509 555 0
-509 556 0
-509 557 0
-509 558 0
-509 559 0
-510 -552 0
-510 553 0
-510 554 0
-510 555 0
-510 556 0
-510 557 0
-510 558 0
-510 559 0
-511 552 0
-511 553 0
-511 554 0
-511 555 0
-511 556 0
-511 557 0
-511 558 0
-511 559 0
64 65 66 67 68 69 70 71 72 73 74 75 76 77 78 79 80 81 82 83 84 85 86 87 88 89 90 91 92 93 94 95 96 97 98 99 100 101 102 103 104 105 106 107 108 109 110 111 112 113 114 115 116 117 118 119 120 121 122 123 124 125 126 127 192 193 194 195 196 197 198 199 200 201 202 203 204 205 206 207 208 209 210 211 212 213 214 215 216 217 218 219 220 221 222 223 224 225 226 227 228 229 230 231 232 233 234 235 236 237 238 239 240 241 242 243 244 245 246 247 248 249 250 251 252 253 254 255 320 321 322 323 324 325 326 327 328 329 330 331 332 333 334 335 336 337 338 339 340 341 342 343 344 345 346 347 348 349 350 351 352 353 354 355 356 357 358 359 360 361 362 363 364 365 366 367 368 369 370 371 372 373 374 375 376 377 378 379 380 381 382 383 448 449 450 451 452 453 454 455 456 457 458 459 460 461 462 463 464 465 466 467 468 469 470 471 472 473 474 475 476 477 478 479 480 481 482 483 484 485 486 487 488 489 490 491 492 493 494 495 496 497 498 499 500 501 502 503 504 505 506 507 508 509 510 511 0
-64 -560 0
-64 -561 0
-64 -562 0
-64 -563 0
-64 -564 0
-64 -565 0
-64 -566 0
-64 -567 0
-65 560 0
-65 -561 0
-65 -562 0
-65 -563 0
-65 -564 0
-65 -565 0
-65 -566 0
-65 -567 0
-66 -560 0
-66 561 0
-66 -562 0
-66 -563 0
-66 -564 0
-66 -565 0
-66 -566 0
-66 -567 0
-67 560 0
-67 561 0
-67 -562 0
-67 -563 0
-67 -564 0
-67 -565 0
-67 -566 0
-67 -567 0
-68 -560 0
-68 -561 0
-68 562 0
-68 -563 0
-68 -564 0
-68 -565 0
-68 -566 0
-68 -567 0
-69 560 0
-69 -561 0
-69 562 0
-69 -563 0
-69 -564 0
-69 -565 0
-69 -566 0
-69 -567 0
-70 -560 0
-70 561 0
-70 562 0
-70 -563 0
-70 -564 0
-70 -565 0
-70 -566 0
-70 -567 0
-71 560 0
-71 561 0
-71 562 0
-71 -563 0
-71 -564 0
-71 -565 0
-71 -566 0
-71 -567 0
-72 -560 0
-72 -561 0
-72 -562 0
-72 563 0
-72 -564 0
-72 -565 0
-72 -566 0
-72 -567 0
-73 560 0
-73 -561 0
-73 -562 0
-73 563 0
-73 -564 0
-73 -565 0
-73 -566 0
-73 -567 0
-74 -560 0
-74 561 0
-74 -562 0
-74 563 0
-74 -564 0
-74 -565 0
-74 -566 0
-74 -567 0
-75 560 0
-75 561 0
-75 -562 0
-75 563 0
-75 -564 0
-75 -565 0
-75 -566 0
-75 -567 0
-76 -560 0
-76 -561 0
-76 562 0
-76 563 0
-76 -564 0
-76 -565 0
-76 -566 0
-76 -567 0
-77 560 0
-77 -561 0
-77 562 0
-77 563 0
-77 -564 0
-77 -565 0
-77 -566 0
-77 -567 0
-78 -560 0
-78 561 0
-78 562 0
-78 563 0
-78 -564 0
-78 -565 0
-78 -566 0
-78 -567 0
-79 560 0
-79 561 0
-79 562 0
-79 563 0
-79 -564 0
-79 -565 0
-79 -566 0
-79 -567 0
-80 -560 0
-80 -561 0
-80 -562 0
-80 -563 0
-80 564 0
-80 -565 0
-80 -566 0
-80 -567 0
-81 560 0
-81 -561 0
-81 -562 0
-81 -563 0
-81 564 0
-81 -565 0
-81 -566 0
-81 -567 0
-82 -560 0
-82 561 0
-82 -562 0
-82 -563 0
-82 564 0
-82 -565 0
-82 -566 0
-82 -567 0
-83 560 0
-83 561 0
-83 -562 0
-83 -563 0
-83 564 0
-83 -565 0
-83 -566 0
-83 -567 0
-84 -560 0
-84 -561 0
-84 562 0
-84 -563 0
-84 564 0
-84 -565 0
-84 -566 0
-84 -567 0
-85 560 0
-85 -561 0
-85 562 0
-85 -563 0
-85 564 0
-85 -565 0
-85 -566 0
-85 -567 0
-86 -560 0
-86 561 0
-86 562 0
-86 -563 0
-86 564 0
-86 -565 0
-86 -566 0
-86 -567 0
-87 560 0
-87 561 0
-87 562 0
-87 -563 0
-87 564 0
-87 -565 0
-87 -566 0
-87 -567 0
-88 -560 0
-88 -561 0
-88 -562 0
-88 563 0
-88 564 0
-88 -565 0
-88 -566 0
-88 -567 0
-89 560 0
-89 -561 0
-89 -562 0
-89 563 0
-89 564 0
-89 -565 0
-89 -566 0
-89 -567 0
-90 -560 0
-90 561 0
-90 -562 0
-90 563 0
-90 564 0
-90 -565 0
-90 -566 0
-90 -567 0
-91 560 0
-91 561 0
-91 -562 0
-91 563 0
-91 564 0
-91 -565 0
-91 -566 0
-91 -567 0
-92 -560 0
-92 -561 0
-92 562 0
-92 563 0
-92 564 0
-92 -565 0
-92 -566 0
-92 -567 0
-93 560 0
-93 -561 0
-93 562 0
-93 563 0
-93 564 0
-93 -565 0
-93 -566 0
-93 -567 0
-94 -560 0
-94 561 0
-94 562 0
-94 563 0
-94 564 0
-94 -565 0
-94 -566 0
-94 -567 0
-95 560 0
-95 561 0
-95 562 0
-95 563 0
-95 564 0
-95 -565 0
-95 -566 0
-95 -567 0
-96 -560 0
-96 -561 0
-96 -562 0
-96 -563 0
-96 -564 0
-96 565 0
-96 -566 0
-96 -567 0
-97 560 0
-97 -561 0
-97 -562 0
-97 -563 0
-97 -564 0
-97 565 0
-97 -566 0
-97 -567 0
-98 -560 0
-98 561 0
-98 -562 0
-98 -563 0
-98 -564 0
-98 565 0
-98 -566 0
-98 -567 0
-99 560 0
-99 561 0
-99 -562 0
-99 -563 0
-99 -564 0
-99 565 0
-99 -566 0
-99 -567 0
-100 -560 0
-100 -561 0
-100 562 0
-100 -563 0
-100 -564 0
-100 565 0
-100 -566 0
-100 -567 0
-101 560 0
-101 -561 0
-101 562 0
-101 -563 0
-101 -564 0
-101 565 0
-101 -566 0
-101 -567 0
-102 -560 0
-102 561 0
-102 562 0
-102 -563 0
-102 -564 0
-102 565 0
-102 -566 0
-102 -567 0
-103 560 0
-103 561 0
-103 562 0
-103 -563 0
-103 -564 0
-103 565 0
-103 -566 0
-103 -567 0
-104 -560 0
-104 -561 0
-104 -562 0
-104 563 0
-104 -564 0
-104 565 0
-104 -566 0
-104 -567 0
-105 560 0
-105 -561 0
-105 -562 0
-105 563 0
-105 -564 0
-105 565 0
-105 -566 0
-105 -567 0
-106 -560 0
-106 561 0
-106 -562 0
-106 563 0
-106 -564 0
-106 565 0
-106 -566 0
-106 -567 0
-107 560 0
-107 561 0
-107 -562 0
-107 563 0
-107 -564 0
-107 565 0
-107 -566 0
-107 -567 0
-108 -560 0
-108 -561 0
-108 562 0
-108 563 0
-108 -564 0
-108 565 0
-108 -566 0
-108 -567 0
-109 560 0
-109 -561 0
-109 562 0
-109 563 0
-109 -564 0
-109 565 0
-109 -566 0
-109 -567 0
-110 -560 0
-110 561 0
-110 562 0
-110 563 0
-110 -564 0
-110 565 0
-110 -566 0
-110 -567 0
-111 560 0
-111 561 0
-111 562 0
-111 563 0
-111 -564 0
-111 565 0
-111 -566 0
-111 -567 0
-112 -560 0
-112 -561 0
-112 -562 0
-112 -563 0
-112 564 0
-112 565 0
-112 -566 0
-112 -567 0
-113 560 0
-113 -561 0
-113 -562 0
-113 -563 0
-113 564 0
-113 565 0
-113 -566 0
-113 -567 0
-114 -560 0
-114 561 0
-114 -562 0
-114 -563 0
-114 564 0
-114 565 0
-114 -566 0
-114 -567 0
-115 560 0
-115 561 0
-115 -562 0
-115 -563 0
-115 564 0
-115 565 0
-115 -566 0
-115 -567 0
-116 -560 0
-116 -561 0
-116 562 0
-116 -563 0
-116 564 0
-116 565 0
-116 -566 0
-116 -567 0
-117 560 0
-117 -561 0
-117 562 0
-117 -563 0
-117 564 0
-117 565 0
-117 -566 0
-117 -567 0
-118 -560 0
-118 561 0
-118 562 0
-118 -563 0
-118 564 0
-118 565 0
-118 -566 0
-118 -567 0
-119 560 0
-119 561 0
-119 562 0
-119 -563 0
-119 564 0
-119 565 0
-119 -566 0
-119 -567 0
-120 -560 0
-120 -561 0
-120 -562 0
-120 563 0
-120 564 0
-120 565 0
-120 -566 0
-120 -567 0
-121 560 0
-121 -561 0
-121 -562 0
-121 563 0
-121 564 0
-121 565 0
-121 -566 0
-121 -567 0
-122 -560 0
-122 561 0
-122 -562 0
-122 563 0
-122 564 0
-122 565 0
-122 -566 0
-122 -567 0
-123 560 0
-123 561 0
-123 -562 0
-123 563 0
-123 564 0
-123 565 0
-123 -566 0
-123 -567 0
-124 -560 0
-124 -561 0
-124 562 0
-124 563 0
-124 564 0
-124 565 0
-124 -566 0
-124 -567 0
-125 560 0
-125 -561 0
-125 562 0
-125 563 0
-125 564 0
-125 565 0
-125 -566 0
-125 -567 0
-126 -560 0
-126 561 0
-126 562 0
-126 563 0
-126 564 0
-126 565 0
-126 -566 0
-126 -567 0
-127 560 0
-127 561 0
-127 562 0
-127 563 0
-127 564 0
-127 565 0
-127 -566 0
-127 -567 0
-192 -560 0
-192 -561 0
-192 -562 0
-192 -563 0
-192 -564 0
-192 -565 0
-192 566 0
-192 -567 0
-193 560 0
-193 -561 0
-193 -562 0
-193 -563 0
-193 -564 0
-193 -565 0
-193 566 0
-193 -567 0
-194 -560 0
-194 561 0
-194 -562 0
-194 -563 0
-194 -564 0
-194 -565 0
-194 566 0
-194 -567 0
-195 560 0
-195 561 0
-195 -562 0
-195 -563 0
-195 -564 0
-195 -565 0
-195 566 0
-195 -567 0
-196 -560 0
-196 -561 0
-196 562 0
-196 -563 0
-196 -564 0
-196 -565 0
-196 566 0
-196 -567 0
-197 560 0
-197 -561 0
-197 562 0
-197 -563 0
-197 -564 0
-197 -565 0
-197 566 0
-197 -567 0
-198 -560 0
-198 561 0
-198 562 0
-198 -563 0
-198 -564 0
-198 -565 0
-198 566 0
-198 -567 0
-199 560 0
-199 561 0
-199 562 0
-199 -563 0
-199 -564 0
-199 -565 0
-199 566 0
-199 -567 0
-200 -560 0
-200 -561 0
-200 -562 0
-200 563 0
-200 -564 0
-200 -565 0
-200 566 0
-200 -567 0
-201 560 0
-201 -561 0
-201 -562 0
-201 563 0
-201 -564 0
-201 -565 0
-201 566 0
-201 -567 0
-202 -560 0
-202 561 0
-202 -562 0
-202 563 0
-202 -564 0
-202 -565 0
-202 566 0
-202 -567 0
-203 560 0
-203 561 0
-203 -562 0
-203 563 0
-203 -564 0
-203 -565 0
-203 566 0
-203 -567 0
-204 -560 0
-204 -561 0
-204 562 0
-204 563 0
-204 -564 0
-204 -565 0
-204 566 0
-204 -567 0
-205 560 0
-205 -561 0
-205 562 0
-205 563 0
-205 -564 0
-205 -565 0
-205 566 0
-205 -567 0
-206 -560 0
-206 561 0
-206 562 0
-206 563 0
-206 -564 0
-206 -565 0
-206 566 0
-206 -567 0
-207 560 0
-207 561 0
-207 562 0
-207 563 0
-207 -564 0
-207 -565 0
-207 566 0
-207 -567 0
-208 -560 0
-208 -561 0
-208 -562 0
-208 -563 0
-208 564 0
-208 -565 0
-208 566 0
-208 -567 0
-209 560 0
-209 -561 0
-209 -562 0
-209 -563 0
-209 564 0
-209 -565 0
-209 566 0
-209 -567 0
-210 -560 0
-210 561 0
-210 -562 0
-210 -563 0
-210 564 0
-210 -565 0
-210 566 0
-210 -567 0
-211 560 0
-211 561 0
-211 -562 0
-211 -563 0
-211 564 0
-211 -565 0
-211 566 0
-211 -567 0
-212 -560 0
-212 -561 0
-212 562 0
-212 -563 0
-212 564 0
-212 -565 0
-212 566 0
-212 -567 0
-213 560 0
-213 -561 0
-213 562 0
-213 -563 0
-213 564 0
-213 -565 0
-213 566 0
-213 -567 0
-214 -560 0
-214 561 0
-214 562 0
-214 -563 0
-214 564 0
-214 -565 0
-214 566 0
-214 -567 0
-215 560 0
-215 561 0
-215 562 0
-215 -563 0
-215 564 0
-215 -565 0
-215 566 0
-215 -567 0
-216 -560 0
-216 -561 0
-216 -562 0
-216 563 0
-216 564 0
-216 -565 0
-216 566 0
-216 -567 0
-217 560 0
-217 -561 0
-217 -562 0
-217 563 0
-217 564 0
-217 -565 0
-217 566 0
-217 -567 0
-218 -560 0
-218 561 0
-218 -562 0
-218 563 0
-218 564 0
-218 -565 0
-218 566 0
-218 -567 0
-219 560 0
-219 561 0
-219 -562 0
-219 563 0
-219 564 0
-219 -565 0
-219 566 0
-219 -567 0
-220 -560 0
-220 -561 0
-220 562 0
-220 563 0
-220 564 0
-220 -565 0
-220 566 0
-220 -567 0
-221 560 0
-221 -561 0
-221 562 0
-221 563 0
-221 564 0
-221 -565 0
-221 566 0
-221 -567 0
-222 -560 0
-222 561 0
-222 562 0
-222 563 0
-222 564 0
-222 -565 0
-222 566 0
-222 -567 0
-223 560 0
-223 561 0
-223 562 0
-223 563 0
-223 564 0
-223 -565 0
-223 566 0
-223 -567 0
-224 -560 0
-224 -561 0
-224 -562 0
-224 -563 0
-224 -564 0
-224 565 0
-224 566 0
-224 -567 0
-225 560 0
-225 -561 0
-225 -562 0
-225 -563 0
-225 -564 0
-225 565 0
-225 566 0
-225 -567 0
-226 -560 0
-226 561 0
-226 -562 0
-226 -563 0
-226 -564 0
-226 565 0
-226 566 0
-226 -567 0
-227 560 0
-227 561 0
-227 -562 0
-227 -563 0
-227 -564 0
-227 565 0
-227 566 0
-227 -567 0
-228 -560 0
-228 -561 0
-228 562 0
-228 -563 0
-228 -564 0
-228 565 0
-228 566 0
-228 -567 0
-229 560 0
-229 -561 0
-229 562 0
-229 -563 0
-229 -564 0
-229 565 0
-229 566 0
-229 -567 0
-230 -560 0
-230 561 0
-230 562 0
-230 -563 0
-230 -564 0
-230 565 0
-230 566 0
-230 -567 0
-231 560 0
-231 561 0
-231 562 0
-231 -563 0
-231 -564 0
-231 565 0
-231 566 0
-231 -567 0
-232 -560 0
-232 -561 0
-232 -562 0
-232 563 0
-232 -564 0
-232 565 0
-232 566 0
-232 -567 0
-233 560 0
-233 -561 0
-233 -562 0
-233 563 0
-233 -564 0
-233 565 0
-233 566 0
-233 -567 0
-234 -560 0
-234 561 0
-234 -562 0
-234 563 0
-234 -564 0
-234 565 0
-234 566 0
-234 -567 0
-235 560 0
-235 561 0
-235 -562 0
-235 563 0
-235 -564 0
-235 565 0
-235 566 0
-235 -567 0
-236 -560 0
-236 -561 0
-236 562 0
-236 563 0
-236 -564 0
-236 565 0
-236 566 0
-236 -567 0
-237 560 0
-237 -561 0
-237 562 0
-237 563 0
-237 -564 0
-237 565 0
-237 566 0
-237 -567 0
-238 -560 0
-238 561 0
-238 562 0
-238 563 0
-238 -564 0
-238 565 0
-238 566 0
-238 -567 0
-239 560 0
-239 561 0
-239 562 0
-239 563 0
-239 -564 0
-239 565 0
-239 566 0
-239 -567 0
-240 -560 0
-240 -561 0
-240 -562 0
-240 -563 0
-240 564 0
-240 565 0
-240 566 0
-240 -567 0
-241 560 0
-241 -561 0
-241 -562 0
-241 -563 0
-241 564 0
-241 565 0
-241 566 0
-241 -567 0
-242 -560 0
-242 561 0
-242 -562 0
-242 -563 0
-242 564 0
-242 565 0
-242 566 0
-242 -567 0
-243 560 0
-243 561 0
-243 -562 0
-243 -563 0
-243 564 0
-243 565 0
-243 566 0
-243 -567 0
-244 -560 0
-244 -561 0
-244 562 0
-244 -563 0
-244 564 0
-244 565 0
-244 566 0
-244 -567 0
-245 560 0
-245 -561 0
-245 562 0
-245 -563 0
-245 564 0
-245 565 0
-245 566 0
-245 -567 0
-246 -560 0
-246 561 0
-246 562 0
-246 -563 0
-246 564 0
-246 565 0
-246 566 0
-246 -567 0
-247 560 0
-247 561 0
-247 562 0
-247 -563 0
-247 564 0
-247 565 0
-247 566 0
-247 -567 0
-248 -560 0
-248 -561 0
-248 -562 0
-248 563 0
-248 564 0
-248 565 0
-248 566 0
-248 -567 0
-249 560 0
-249 -561 0
-249 -562 0
-249 563 0
-249 564 0
-249 565 0
-249 566 0
-249 -567 0
-250 -560 0
-250 561 0
-250 -562 0
-250 563 0
-250 564 0
-250 565 0
-250 566 0
-250 -567 0
-251 560 0
-251 561 0
-251 -562 0
-251 563 0
-251 564 0
-251 565 0
-251 566 0
-251 -567 0
-252 -560 0
-252 -561 0
-252 562 0
-252 563 0
-252 564 0
-252 565 0
-252 566 0
-252 -567 0
-253 560 0
-253 -561 0
-253 562 0
-253 563 0
-253 564 0
-253 565 0
-253 566 0
-253 -567 0
-254 -560 0
-254 561 0
-254 562 0
-254 563 0
-254 564 0
-254 565 0
-254 566 0
-254 -567 0
-255 560 0
-255 561 0
-255 562 0
-255 563 0
-255 564 0
-255 565 0
-255 566 0
-255 -567 0
-320 -560 0
-320 -561 0
-320 -562 0
-320 -563 0
-320 -564 0
-320 -565 0
-320 -566 0
-320 567 0
-321 560 0
-321 -561 0
-321 -562 0
-321 -563 0
-321 -564 0
-321 -565 0
-321 -566 0
-321 567 0
-322 -560 0
-322 561 0
-322 -562 0
-322 -563 0
-322 -564 0
-322 -565 0
-322 -566 0
-322 567 0
-323 560 0
-323 561 0
-323 -562 0
-323 -563 0
-323 -564 0
-323 -565 0
-323 -566 0
-323 567 0
-324 -560 0
-324 -561 0
-324 562 0
-324 -563 0
-324 -564 0
-324 -565 0
-324 -566 0
-324 567 0
-325 560 0
-325 -561 0
-325 562 0
-325 -563 0
-325 -564 0
-325 -565 0
-325 -566 0
-325 567 0
-326 -560 0
-326 561 0
-326 562 0
-326 -563 0
-326 -564 0
-326 -565 0
-326 -566 0
-326 567 0
-327 560 0
-327 561 0
-327 562 0
-327 -563 0
-327 -564 0
-327 -565 0
-327 -566 0
-327 567 0
-328 -560 0
-328 -561 0
-328 -562 0
-328 563 0
-328 -564 0
-328 -565 0
-328 -566 0
-328 567 0
-329 560 0
-329 -561 0
-329 -562 0
-329 563 0
-329 -564 0
-329 -565 0
-329 -566 0
-329 567 0
-330 -560 0
-330 561 0
-330 -562 0
-330 563 0
-330 -564 0
-330 -565 0
-330 -566 0
-330 567 0
-331 560 0
-331 561 0
-331 -562 0
-331 563 0
-331 -564 0
-331 -565 0
-331 -566 0
-331 567 0
-332 -560 0
-332 -561 0
-332 562 0
-332 563 0
-332 -564 0
-332 -565 0
-332 -566 0
-332 567 0
-333 560 0
-333 -561 0
-333 562 0
-333 563 0
-333 -564 0
-333 -565 0
-333 -566 0
-333 567 0
-334 -560 0
-334 561 0
-334 562 0
-334 563 0
-334 -564 0
-334 -565 0
-334 -566 0
-334 567 0
-335 560 0
-335 561 0
-335 562 0
-335 563 0
-335 -564 0
-335 -565 0
-335 -566 0
-335 567 0
-336 -560 0
-336 -561 0
-336 -562 0
-336 -563 0
-336 564 0
-336 -565 0
-336 -566 0
-336 567 0
-337 560 0
-337 -561 0
-337 -562 0
-337 -563 0
-337 564 0
-337 -565 0
-337 -566 0
-337 567 0
-338 -560 0
-338 561 0
-338 -562 0
-338 -563 0
-338 564 0
-338 -565 0
-338 -566 0
-338 567 0
-339 560 0
-339 561 0
-339 -562 0
-339 -563 0
-339 564 0
-339 -565 0
-339 -566 0
-339 567 0
-340 -560 0
-340 -561 0
-340 562 0
-340 -563 0
-340 564 0
-340 -565 0
-340 -566 0
-340 567 0
-341 560 0
-341 -561 0
-341 562 0
-341 -563 0
-341 564 0
-341 -565 0
-341 -566 0
-341 567 0
-342 -560 0
-342 561 0
-342 562 0
-342 -563 0
-342 564 0
-342 -565 0
-342 -566 0
-342 567 0
-343 560 0
-343 561 0
-343 562 0
-343 -563 0
-343 564 0
-343 -565 0
-343 -566 0
-343 567 0
-344 -560 0
-344 -561 0
-344 -562 0
-344 563 0
-344 564 0
-344 -565 0
-344 -566 0
-344 567 0
-345 560 0
-345 -561 0
-345 -562 0
-345 563 0
-345 564 0
-345 -565 0
-345 -566 0
-345 567 0
-346 -560 0
-346 561 0
-346 -562 0
-346 563 0
-346 564 0
-346 -565 0
-346 -566 0
-346 567 0
-347 560 0
-347 561 0
-347 -562 0
-347 563 0
-347 564 0
-347 -565 0
-347 -566 0
-347 567 0
-348 -560 0
-348 -561 0
-348 562 0
-348 563 0
-348 564 0
-348 -565 0
-348 -566 0
-348 567 0
-349 560 0
-349 -561 0
-349 562 0
-349 563 0
-349 564 0
-349 -565 0
-349 -566 0
-349 567 0
-350 -560 0
-350 561 0
-350 562 0
-350 563 0
-350 564 0
-350 -565 0
-350 -566 0
-350 567 0
-351 560 0
-351 561 0
-351 562 0
-351 563 0
-351 564 0
-351 -565 0
-351 -566 0
-351 567 0
-352 -560 0
-352 -561 0
-352 -562 0
-352 -563 0
-352 -564 0
-352 565 0
-352 -566 0
-352 567 0
-353 560 0
-353 -561 0
-353 -562 0
-353 -563 0
-353 -564 0
-353 565 0
-353 -566 0
-353 567 0
-354 -560 0
-354 561 0
-354 -562 0
-354 -563 0
-354 -564 0
-354 565 0
-354 -566 0
-354 567 0
-355 560 0
-355 561 0
-355 -562 0
-355 -563 0
-355 -564 0
-355 565 0
-355 -566 0
-355 567 0
-356 -560 0
-356 -561 0
-356 562 0
-356 -563 0
-356 -564 0
-356 565 0
-356 -566 0
-356 567 0
-357 560 0
-357 -561 0
-357 562 0
-357 -563 0
-357 -564 0
-357 565 0
-357 -566 0
-357 567 0
-358 -560 0
-358 561 0
-358 562 0
-358 -563 0
-358 -564 0
-358 565 0
-358 -566 0
-358 567 0
-359 560 0
-359 561 0
-359 562 0
-359 -563 0
-359 -564 0
-359 565 0
-359 -566 0
-359 567 0
-360 -560 0
-360 -561 0
-360 -562 0
-360 563 0
-360 -564 0
-360 565 0
-360 -566 0
-360 567 0
-361 560 0
-361 -561 0
-361 -562 0
-361 563 0
-361 -564 0
-361 565 0
-361 -566 0
-361 567 0
-362 -560 0
-362 561 0
-362 -562 0
-362 563 0
-362 -564 0
-362 565 0
-362 -566 0
-362 567 0
-363 560 0
-363 561 0
-363 -562 0
-363 563 0
-363 -564 0
-363 565 0
-363 -566 0
-363 567 0
-364 -560 0
-364 -561 0
-364 562 0
-364 563 0
-364 -564 0
-364 565 0
-364 -566 0
-364 567 0
-365 560 0
-365 -561 0
-365 562 0
-365 563 0
-365 -564 0
-365 565 0
-365 -566 0
-365 567 0
-366 -560 0
-366 561 0
-366 562 0
-366 563 0
-366 -564 0
-366 565 0
-366 -566 0
-366 567 0
-367 560 0
-367 561 0
-367 562 0
-367 563 0
-367 -564 0
-367 565 0
-367 -566 0
-367 567 0
-368 -560 0
-368 -561 0
-368 -562 0
-368 -563 0
-368 564 0
-368 565 0
-368 -566 0
-368 567 0
-369 560 0
-369 -561 0
-369 -562 0
-369 -563 0
-369 564 0
-369 565 0
-369 -566 0
-369 567 0
-370 -560 0
-370 561 0
-370 -562 0
-370 -563 0
-370 564 0
-370 565 0
-370 -566 0
-370 567 0
-371 560 0
-371 561 0
-371 -562 0
-371 -563 0
-371 564 0
-371 565 0
-371 -566 0
-371 567 0
-372 -560 0
-372 -561 0
-372 562 0
-372 -563 0
-372 564 0
-372 565 0
-372 -566 0
-372 567 0
-373 560 0
-373 -561 0
-373 562 0
-373 -563 0
-373 564 0
-373 565 0
-373 -566 0
-373 567 0
-374 -560 0
-374 561 0
-374 562 0
-374 -563 0
-374 564 0
-374 565 0
-374 -566 0
-374 567 0
-375 560 0
-375 561 0
-375 562 0
-375 -563 0
-375 564 0
-375 565 0
-375 -566 0
-375 567 0
-376 -560 0
-376 -561 0
-376 -562 0
-376 563 0
-376 564 0
-376 565 0
-376 -566 0
-376 567 0
-377 560 0
-377 -561 0
-377 -562 0
-377 563 0
-377 564 0
-377 565 0
-377 -566 0
-377 567 0
-378 -560 0
-378 561 0
-378 -562 0
-378 563 0
-378 564 0
-378 565 0
-378 -566 0
-378 567 0
-379 560 0
-379 561 0
-379 -562 0
-379 563 0
-379 564 0
-379 565 0
-379 -566 0
-379 567 0
-380 -560 0
-380 -561 0
-380 562 0
-380 563 0
-380 564 0
-380 565 0
-380 -566 0
-380 567 0
-381 560 0
-381 -561 0
-381 562 0
-381 563 0
-381 564 0
-381 565 0
-381 -566 0
-381 567 0
-382 -560 0
-382 561 0
-382 562 0
-382 563 0
-382 564 0
-382 565 0
-382 -566 0
-382 567 0
-383 560 0
-383 561 0
-383 562 0
-383 563 0
-383 564 0
-383 565 0
-383 -566 0
-383 567 0
-448 -560 0
-448 -561 0
-448 -562 0
-448 -563 0
-448 -564 0
-448 -565 0
-448 566 0
-448 567 0
-449 560 0
-449 -561 0
-449 -562 0
-449 -563 0
-449 -564 0
-449 -565 0
-449 566 0
-449 567 0
-450 -560 0
-450 561 0
-450 -562 0
-450 -563 0
-450 -564 0
-450 -565 0
-450 566 0
-450 567 0
-451 560 0
-451 561 0
-451 -562 0
-451 -563 0
-451 -564 0
-451 -565 0
-451 566 0
-451 567 0
-452 -560 0
-452 -561 0
-452 562 0
-452 -563 0
-452 -564 0
-452 -565 0
-452 566 0
-452 567 0
-453 560 0
-453 -561 0
-453 562 0
-453 -563 0
-453 -564 0
-453 -565 0
-453 566 0
-453 567 0
-454 -560 0
-454 561 0
-454 562 0
-454 -563 0
-454 -564 0
-454 -565 0
-454 566 0
-454 567 0
-455 560 0
-455 561 0
-455 562 0
-455 -563 0
-455 -564 0
-455 -565 0
-455 566 0
-455 567 0
-456 -560 0
-456 -561 0
-456 -562 0
-456 563 0
-456 -564 0
-456 -565 0
-456 566 0
-456 567 0
-457 560 0
-457 -561 0
-457 -562 0
-457 563 0
-457 -564 0
-457 -565 0
-457 566 0
-457 567 0
-458 -560 0
-458 561 0
-458 -562 0
-458 563 0
-458 -564 0
-458 -565 0
-458 566 0
-458 567 0
-459 560 0
-459 561 0
-459 -562 0
-459 563 0
-459 -564 0
-459 -565 0
-459 566 0
-459 567 0
-460 -560 0
-460 -561 0
-460 562 0
-460 563 0
-460 -564 0
-460 -565 0
-460 566 0
-460 567 0
-461 560 0
-461 -561 0
-461 562 0
-461 563 0
-461 -564 0
-461 -565 0
-461 566 0
-461 567 0
-462 -560 0
-462 561 0
-462 562 0
-462 563 0
-462 -564 0
-462 -565 0
-462 566 0
-462 567 0
-463 560 0
-463 561 0
-463 562 0
-463 563 0
-463 -564 0
-463 -565 0
-463 566 0
-463 567 0
-464 -560 0
-464 -561 0
-464 -562 0
-464 -563 0
-464 564 0
-464 -565 0
-464 566 0
-464 567 0
-465 560 0
-465 -561 0
-465 -562 0
-465 -563 0
-465 564 0
-465 -565 0
-465 566 0
-465 567 0
-466 -560 0
-466 561 0
-466 -562 0
-466 -563 0
-466 564 0
-466 -565 0
-466 566 0
-466 567 0
-467 560 0
-467 561 0
-467 -562 0
-467 -563 0
-467 564 0
-467 -565 0
-467 566 0
-467 567 0
-468 -560 0
-468 -561 0
-468 562 0
-468 -563 0
-468 564 0
-468 -565 0
-468 566 0
-468 567 0
-469 560 0
-469 -561 0
-469 562 0
-469 -563 0
-469 564 0
-469 -565 0
-469 566 0
-469 567 0
-470 -560 0
-470 561 0
-470 562 0
-470 -563 0
-470 564 0
-470 -565 0
-470 566 0
-470 567 0
-471 560 0
-471 561 0
-471 562 0
-471 -563 0
-471 564 0
-471 -565 0
-471 566 0
-471 567 0
-472 -560 0
-472 -561 0
-472 -562 0
-472 563 0
-472 564 0
-472 -565 0
-472 566 0
-472 567 0
-473 560 0
-473 -561 0
-473 -562 0
-473 563 0
-473 564 0
-473 -565 0
-473 566 0
-473 567 0
-474 -560 0
-474 561 0
-474 -562 0
-474 563 0
-474 564 0
-474 -565 0
-474 566 0
-474 567 0
-475 560 0
-475 561 0
-475 -562 0
-475 563 0
-475 564 0
-475 -565 0
-475 566 0
-475 567 0
-476 -560 0
-476 -561 0
-476 562 0
-476 563 0
-476 564 0
-476 -565 0
-476 566 0
-476 567 0
-477 560 0
-477 -561 0
-477 562 0
-477 563 0
-477 564 0
-477 -565 0
-477 566 0
-477 567 0
-478 -560 0
-478 561 0
-478 562 0
-478 563 0
-478 564 0
-478 -565 0
-478 566 0
-478 567 0
-479 560 0
-479 561 0
-479 562 0
-479 563 0
-479 564 0
-479 -565 0
-479 566 0
-479 567 0
-480 -560 0
-480 -561 0
-480 -562 0
-480 -563 0
-480 -564 0
-480 565 0
-480 566 0
-480 567 0
-481 560 0
-481 -561 0
-481 -562 0
-481 -563 0
-481 -564 0
-481 565 0
-481 566 0
-481 567 0
-482 -560 0
-482 561 0
-482 -562 0
-482 -563 0
-482 -564 0
-482 565 0
-482 566 0
-482 567 0
-483 560 0
-483 561 0
-483 -562 0
-483 -563 0
-483 -564 0
-483 565 0
-483 566 0
-483 567 0
-484 -560 0
-484 -561 0
-484 562 0
-484 -563 0
-484 -564 0
-484 565 0
-484 566 0
-484 567 0
-485 560 0
-485 -561 0
-485 562 0
-485 -563 0
-485 -564 0
-485 565 0
-485 566 0
-485 567 0
-486 -560 0
-486 561 0
-486 562 0
-486 -563 0
-486 -564 0
-486 565 0
-486 566 0
-486 567 0
-487 560 0
-487 561 0
-487 562 0
-487 -563 0
-487 -564 0
-487 565 0
-487 566 0
-487 567 0
-488 -560 0
-488 -561 0
-488 -562 0
-488 563 0
-488 -564 0
-488 565 0
-488 566 0
-488 567 0
-489 560 0
-489 -561 0
-489 -562 0
-489 563 0
-489 -564 0
-489 565 0
-489 566 0
-489 567 0
-490 -560 0
-490 561 0
-490 -562 0
-490 563 0
-490 -564 0
-490 565 0
-490 566 0
-490 567 0
-491 560 0
-491 561 0
-491 -562 0
-491 563 0
-491 -564 0
-491 565 0
-491 566 0
-491 567 0
-492 -560 0
-492 -561 0
-492 562 0
-492 563 0
-492 -564 0
-492 565 0
-492 566 0
-492 567 0
-493 560 0
-493 -561 0
-493 562 0
-493 563 0
-493 -564 0
-493 565 0
-493 566 0
-493 567 0
-494 -560 0
-494 561 0
-494 562 0
-494 563 0
-494 -564 0
-494 565 0
-494 566 0
-494 567 0
-495 560 0
-495 561 0
-495 562 0
-495 563 0
-495 -564 0
-495 565 0
-495 566 0
-495 567 0
-496 -560 0
-496 -561 0
-496 -562 0
-496 -563 0
-496 564 0
-496 565 0
-496 566 0
-496 567 0
-497 560 0
-497 -561 0
-497 -562 0
-497 -563 0
-497 564 0
-497 565 0
-497 566 0
-497 567 0
-498 -560 0
-498 561 0
-498 -562 0
-498 -563 0
-498 564 0
-498 565 0
-498 566 0
-498 567 0
-499 560 0
-499 561 0
-499 -562 0
-499 -563 0
-499 564 0
-499 565 0
-499 566 0
-499 567 0
-500 -560 0
-500 -561 0
-500 562 0
-500 -563 0
-500 564 0
-500 565 0
-500 566 0
-500 567 0
-501 560 0
-501 -561 0
-501 562 0
-501 -563 0
-501 564 0
-501 565 0
-501 566 0
-501 567 0
-502 -560 0
-502 561 0
-502 562 0
-502 -563 0
-502 564 0
-502 565 0
-502 566 0
-502 567 0
-503 560 0
-503 561 0
-503 562 0
-503 -563 0
-503 564 0
-503 565 0
-503 566 0
-503 567 0
-504 -560 0
-504 -561 0
-504 -562 0
-504 563 0
-504 564 0
-504 565 0
-504 566 0
-504 567 0
-505 560 0
-505 -561 0
-505 -562 0
-505 563 0
-505 564 0
-505 565 0
-505 566 0
-505 567 0
-506 -560 0
-506 561 0
-506 -562 0
-506 563 0
-506 564 0
-506 565 0
-506 566 0
-506 567 0
-507 560 0
-507 561 0
-507 -562 0
-507 563 0
-507 564 0
-507 565 0
-507 566 0
-507 567 0
-508 -560 0
-508 -561 0
-508 562 0
-508 563 0
-508 564 0
-508 565 0
-508 566 0
-508 567 0
-509 560 0
-509 -561 0
-509 562 0
-509 563 0
-509 564 0
-509 565 0
-509 566 0
-509 567 0
-510 -560 0
-510 561 0
-510 562 0
-510 563 0
-510 564 0
-510 565 0
-510 566 0
-510 567 0
-511 560 0
-511 561 0
-511 562 0
-511 563 0
-511 564 0
-511 565 0
-511 566 0
-511 567 0
128 129 130 131 132 133 134 135 136 137 138 139 140 141 142 143 144 145 146 147 148 149 150 151 152 153 154 155 156 157 158 159 160 161 162 163 164 165 166 167 168 169 170 171 172 173 174 175 176 177 178 179 180 181 182 183 184 185 186 187 188 189 190 191 192 193 194 195 196 197 198 199 200 201 202 203 204 205 206 207 208 209 210 211 212 213 214 215 216 217 218 219 220 221 222 223 224 225 226 227 228 229 230 231 232 233 234 235 236 237 238 239 240 241 242 243 244 245 246 247 248 249 250 251 252 253 254 255 384 385 386 387 388 389 390 391 392 393 394 395 396 397 398 399 400 401 402 403 404 405 406 407 408 409 410 411 412 413 414 415 416 417 418 419 420 421 422 423 424 425 426 427 428 429 430 431 432 433 434 435 436 437 438 439 440 441 442 443 444 445 446 447 448 449 450 451 452 453 454 455 456 457 458 459 460 461 462 463 464 465 466 467 468 469 470 471 472 473 474 475 476 477 478 479 480 481 482 483 484 485 486 487 488 489 490 491 492 493 494 495 496 497 498 499 500 501 502 503 504 505 506 507 508 509 510 511 0
-128 -568 0
-128 -569 0
-128 -570 0
-128 -571 0
-128 -572 0
-128 -573 0
-128 -574 0
-128 -575 0
-129 568 0
-129 -569 0
-129 -570 0
-129 -571 0
-129 -572 0
-129 -573 0
-129 -574 0
-129 -575 0
-130 -568 0
-130 569 0
-130 -570 0
-130 -571 0
-130 -572 0
-130 -573 0
-130 -574 0
-130 -575 0
-131 568 0
-131 569 0
-131 -570 0
-131 -571 0
-131 -572 0
-131 -573 0
-131 -574 0
-131 -575 0
-132 -568 0
-132 -569 0
-132 570 0
-132 -571 0
-132 -572 0
-132 -573 0
-132 -574 0
-132 -575 0
-133 568 0
-133 -569 0
-133 570 0
-133 -571 0
-133 -572 0
-133 -573 0
-133 -574 0
-133 -575 0
-134 -568 0
-134 569 0
-134 570 0
-134 -571 0
-134 -572 0
-134 -573 0
-134 -574 0
-134 -575 0
-135 568 0
-135 569 0
-135 570 0
-135 -571 0
-135 -572 0
-135 -573 0
-135 -574 0
-135 -575 0
-136 -568 0
-136 -569 0
-136 -570 0
-136 571 0
-136 -572 0
-136 -573 0
-136 -574 0
-136 -575 0
-137 568 0
-137 -569 0
-137 -570 0
-137 571 0
-137 -572 0
-137 -573 0
-137 -574 0
-137 -575 0
-138 -568 0
-138 569 0
-138 -570 0
-138 571 0
-138 -572 0
-138 -573 0
-138 -574 0
-138 -575 0
-139 568 0
-139 569 0
-139 -570 0
-139 571 0
-139 -572 0
-139 -573 0
-139 -574 0
-139 -575 0
-140 -568 0
-140 -569 0
-140 570 0
-140 571 0
-140 -572 0
-140 -573 0
-140 -574 0
-140 -575 0
-141 568 0
-141 -569 0
-141 570 0
-141 571 0
-141 -572 0
-141 -573 0
-141 -574 0
-141 -575 0
-142 -568 0
-142 569 0
-142 570 0
-142 571 0
-142 -572 0
-142 -573 0
-142 -574 0
-142 -575 0
-143 568 0
-143 569 0
-143 570 0
-143 571 0
-143 -572 0
-143 -573 0
-143 -574 0
-143 -575 0
-144 -568 0
-144 -569 0
-144 -570 0
-144 -571 0
-144 572 0
-144 -573 0
-144 -574 0
-144 -575 0
-145 568 0
-145 -569 0
-145 -570 0
-145 -571 0
-145 572 0
-145 -573 0
-145 -574 0
-145 -575 0
-146 -568 0
-146 569 0
-146 -570 0
-146 -571 0
-146 572 0
-146 -573 0
-146 -574 0
-146 -575 0
-147 568 0
-147 569 0
-147 -570 0
-147 -571 0
-147 572 0
-147 -573 0
-147 -574 0
-147 -575 0
-148 -568 0
-148 -569 0
-148 570 0
-148 -571 0
-148 572 0
-148 -573 0
-148 -574 0
-148 -575 0
-149 568 0
-149 -569 0
-149 570 0
-149 -571 0
-149 572 0
-149 -573 0
-149 -574 0
-149 -575 0
-150 -568 0
-150 569 0
-150 570 0
-150 -571 0
-150 572 0
-150 -573 0
-150 -574 0
-150 -575 0
-151 568 0
-151 569 0
-151 570 0
-151 -571 0
-151 572 0
-151 -573 0
-151 -574 0
-151 -575 0
-152 -568 0
-152 -569 0
-152 -570 0
-152 571 0
-152 572 0
-152 -573 0
-152 -574 0
-152 -575 0
-153 568 0
-153 -569 0
-153 -570 0
-153 571 0
-153 572 0
-153 -573 0
-153 -574 0
-153 -575 0
-154 -568 0
-154 569 0
-154 -570 0
-154 571 0
-154 572 0
-154 -573 0
-154 -574 0
-154 -575 0
-155 568 0
-155 569 0
-155 -570 0
-155 571 0
-155 572 0
-155 -573 0
-155 -574 0
-155 -575 0
-156 -568 0
-156 -569 0
-156 570 0
-156 571 0
-156 572 0
-156 -573 0
-156 -574 0
-156 -575 0
-157 568 0
-157 -569 0
-157 570 0
-157 571 0
-157 572 0
-157 -573 0
-157 -574 0
-157 -575 0
-158 -568 0
-158 569 0
-158 570 0
-158 571 0
-158 572 0
-158 -573 0
-158 -574 0
-158 -575 0
-159 568 0
-159 569 0
-159 570 0
-159 571 0
-159 572 0
-159 -573 0
-159 -574 0
-159 -575 0
-160 -568 0
-160 -569 0
-160 -570 0
-160 -571 0
-160 -572 0
-160 573 0
-160 -574 0
-160 -575 0
-161 568 0
-161 -569 0
-161 -570 0
-161 -571 0
-161 -572 0
-161 573 0
-161 -574 0
-161 -575 0
-162 -568 0
-162 569 0
-162 -570 0
-162 -571 0
-162 -572 0
-162 573 0
-162 -574 0
-162 -575 0
-163 568 0
-163 569 0
-163 -570 0
-163 -571 0
-163 -572 0
-163 573 0
-163 -574 0
-163 -575 0
-164 -568 0
-164 -569 0
-164 570 0
-164 -571 0
-164 -572 0
-164 573 0
-164 -574 0
-164 -575 0
-165 568 0
-165 -569 0
-165 570 0
-165 -571 0
-165 -572 0
-165 573 0
-165 -574 0
-165 -575 0
-166 -568 0
-166 569 0
-166 570 0
-166 -571 0
-166 -572 0
-166 573 0
-166 -574 0
-166 -575 0
-167 568 0
-167 569 0
-167 570 0
-167 -571 0
-167 -572 0
-167 573 0
-167 -574 0
-167 -575 0
-168 -568 0
-168 -569 0
-168 -570 0
-168 571 0
-168 -572 0
-168 573 0
-168 -574 0
-168 -575 0
-169 568 0
-169 -569 0
-169 -570 0
-169 571 0
-169 -572 0
-169 573 0
-169 -574 0
-169 -575 0
-170 -568 0
-170 569 0
-170 -570 0
-170 571 0
-170 -572 0
-170 573 0
-170 -574 0
-170 -575 0
-171 568 0
-171 569 0
-171 -570 0
-171 571 0
-171 -572 0
-171 573 0
-171 -574 0
-171 -575 0
-172 -568 0
-172 -569 0
-172 570 0
-172 571 0
-172 -572 0
-172 573 0
-172 -574 0
-172 -575 0
-173 568 0
-173 -569 0
-173 570 0
-173 571 0
-173 -572 0
-173 573 0
-173 -574 0
-173 -575 0
-174 -568 0
-174 569 0
-174 570 0
-174 571 0
-174 -572 0
-174 573 0
-174 -574 0
-174 -575 0
-175 568 0
-175 569 0
-175 570 0
-175 571 0
-175 -572 0
-175 573 0
-175 -574 0
-175 -575 0
-176 -568 0
-176 -569 0
-176 -570 0
-176 -571 0
-176 572 0
-176 573 0
-176 -574 0
-176 -575 0
-177 568 0
-177 -569 0
-177 -570 0
-177 -571 0
-177 572 0
-177 573 0
-177 -574 0
-177 -575 0
-178 -568 0
-178 569 0
-178 -570 0
-178 -571 0
-178 572 0
-178 573 0
-178 -574 0
-178 -575 0
-179 568 0
-179 569 0
-179 -570 0
-179 -571 0
-179 572 0
-179 573 0
-179 -574 0
-179 -575 0
-180 -568 0
-180 -569 0
-180 570 0
-180 -571 0
-180 572 0
-180 573 0
-180 -574 0
-180 -575 0
-181 568 0
-181 -569 0
-181 570 0
-181 -571 0
-181 572 0
-181 573 0
-181 -574 0
-181 -575 0
-182 -568 0
-182 569 0
-182 570 0
-182 -571 0
-182 572 0
-182 573 0
-182 -574 0
-182 -575 0
-183 568 0
-183 569 0
-183 570 0
-183 -571 0
-183 572 0
-183 573 0
-183 -574 0
-183 -575 0
-184 -568 0
-184 -569 0
-184 -570 0
-184 571 0
-184 572 0
-184 573 0
-184 -574 0
-184 -575 0
-185 568 0
-185 -569 0
-185 -570 0
-185 571 0
-185 572 0
-185 573 0
-185 -574 0
-185 -575 0
-186 -568 0
-186 569 0
-186 -570 0
-186 571 0
-186 572 0
-186 573 0
-186 -574 0
-186 -575 0
-187 568 0
-187 569 0
-187 -570 0
-187 571 0
-187 572 0
-187 573 0
-187 -574 0
-187 -575 0
-188 -568 0
-188 -569 0
-188 570 0
-188 571 0
-188 572 0
-188 573 0
-188 -574 0
-188 -575 0
-189 568 0
-189 -569 0
-189 570 0
-189 571 0
-189 572 0
-189 573 0
-189 -574 0
-189 -575 0
-190 -568 0
-190 569 0
-190 570 0
-190 571 0
-190 572 0
-190 573 0
-190 -574 0
-190 -575 0
-191 568 0
-191 569 0
-191 570 0
-191 571 0
-191 572 0
-191 573 0
-191 -574 0
-191 -575 0
-192 -568 0
-192 -569 0
-192 -570 0
-192 -571 0
-192 -572 0
-192 -573 0
-192 574 0
-192 -575 0
-193 568 0
-193 -569 0
-193 -570 0
-193 -571 0
-193 -572 0
-193 -573 0
-193 574 0
-193 -575 0
-194 -568 0
-194 569 0
-194 -570 0
-194 -571 0
-194 -572 0
-194 -573 0
-194 574 0
-194 -575 0
-195 568 0
-195 569 0
-195 -570 0
-195 -571 0
-195 -572 0
-195 -573 0
-195 574 0
-195 -575 0
-196 -568 0
-196 -569 0
-196 570 0
-196 -571 0
-196 -572 0
-196 -573 0
-196 574 0
-196 -575 0
-197 568 0
-197 -569 0
-197 570 0
-197 -571 0
-197 -572 0
-197 -573 0
-197 574 0
-197 -575 0
-198 -568 0
-198 569 0
-198 570 0
-198 -571 0
-198 -572 0
-198 -573 0
-198 574 0
-198 -575 0
-199 568 0
-199 569 0
-199 570 0
-199 -571 0
-199 -572 0
-199 -573 0
-199 574 0
-199 -575 0
-200 -568 0
-200 -569 0
-200 -570 0
-200 571 0
-200 -572 0
-200 -573 0
-200 574 0
-200 -575 0
-201 568 0
-201 -569 0
-201 -570 0
-201 571 0
-201 -572 0
-201 -573 0
-201 574 0
-201 -575 0
-202 -568 0
-202 569 0
-202 -570 0
-202 571 0
-202 -572 0
-202 -573 0
-202 574 0
-202 -575 0
-203 568 0
-203 569 0
-203 -570 0
-203 571 0
-203 -572 0
-203 -573 0
-203 574 0
-203 -575 0
-204 -568 0
-204 -569 0
-204 570 0
-204 571 0
-204 -572 0
-204 -573 0
-204 574 0
-204 -575 0
-205 568 0
-205 -569 0
-205 570 0
-205 571 0
-205 -572 0
-205 -573 0
-205 574 0
-205 -575 0
-206 -568 0
-206 569 0
-206 570 0
-206 571 0
-206 -572 0
-206 -573 0
-206 574 0
-206 -575 0
-207 568 0
-207 569 0
-207 570 0
-207 571 0
-207 -572 0
-207 -573 0
-207 574 0
-207 -575 0
-208 -568 0
-208 -569 0
-208 -570 0
-208 -571 0
-208 572 0
-208 -573 0
-208 574 0
-208 -575 0
-209 568 0
-209 -569 0
-209 -570 0
-209 -571 0
-209 572 0
-209 -573 0
-209 574 0
-209 -575 0
-210 -568 0
-210 569 0
-210 -570 0
-210 -571 0
-210 572 0
-210 -573 0
-210 574 0
-210 -575 0
-211 568 0
-211 569 0
-211 -570 0
-211 -571 0
-211 572 0
-211 -573 0
-211 574 0
-211 -575 0
-212 -568 0
-212 -569 0
-212 570 0
-212 -571 0
-212 572 0
-212 -573 0
-212 574 0
-212 -575 0
-213 568 0
-213 -569 0
-213 570 0
-213 -571 0
-213 572 0
-213 -573 0
-213 574 0
-213 -575 0
-214 -568 0
-214 569 0
-214 570 0
-214 -571 0
-214 572 0
-214 -573 0
-214 574 0
-214 -575 0
-215 568 0
-215 569 0
-215 570 0
-215 -571 0
-215 572 0
-215 -573 0
-215 574 0
-215 -575 0
-216 -568 0
-216 -569 0
-216 -570 0
-216 571 0
-216 572 0
-216 -573 0
-216 574 0
-216 -575 0
-217 568 0
-217 -569 0
-217 -570 0
-217 571 0
-217 572 0
-217 -573 0
-217 574 0
-217 -575 0
-218 -568 0
-218 569 0
-218 -570 0
-218 571 0
-218 572 0
-218 -573 0
-218 574 0
-218 -575 0
-219 568 0
-219 569 0
-219 -570 0
-219 571 0
-219 572 0
-219 -573 0
-219 574 0
-219 -575 0
-220 -568 0
-220 -569 0
-220 570 0
-220 571 0
-220 572 0
-220 -573 0
-220 574 0
-220 -575 0
-221 568 0
-221 -569 0
-221 570 0
-221 571 0
-221 572 0
-221 -573 0
-221 574 0
-221 -575 0
-222 -568 0
-222 569 0
-222 570 0
-222 571 0
-222 572 0
-222 -573 0
-222 574 0
-222 -575 0
-223 568 0
-223 569 0
-223 570 0
-223 571 0
-223 572 0
-223 -573 0
-223 574 0
-223 -575 0
-224 -568 0
-224 -569 0
-224 -570 0
-224 -571 0
-224 -572 0
-224 573 0
-224 574 0
-224 -575 0
-225 568 0
-225 -569 0
-225 -570 0
-225 -571 0
-225 -572 0
-225 573 0
-225 574 0
-225 -575 0
-226 -568 0
-226 569 0
-226 -570 0
-226 -571 0
-226 -572 0
-226 573 0
-226 574 0
-226 -575 0
-227 568 0
-227 569 0
-227 -570 0
-227 -571 0
-227 -572 0
-227 573 0
-227 574 0
-227 -575 0
-228 -568 0
-228 -569 0
-228 570 0
-228 -571 0
-228 -572 0
-228 573 0
-228 574 0
-228 -575 0
-229 568 0
-229 -569 0
-229 570 0
-229 -571 0
-229 -572 0
-229 573 0
-229 574 0
-229 -575 0
-230 -568 0
-230 569 0
-230 570 0
-230 -571 0
-230 -572 0
-230 573 0
-230 574 0
-230 -575 0
-231 568 0
-231 569 0
-231 570 0
-231 -571 0
-231 -572 0
-231 573 0
-231 574 0
-231 -575 0
-232 -568 0
-232 -569 0
-232 -570 0
-232 571 0
-232 -572 0
-232 573 0
-232 574 0
-232 -575 0
-233 568 0
-233 -569 0
-233 -570 0
-233 571 0
-233 -572 0
-233 573 0
-233 574 0
-233 -575 0
-234 -568 0
-234 569 0
-234 -570 0
-234 571 0
-234 -572 0
-234 573 0
-234 574 0
-234 -575 0
-235 568 0
-235 569 0
-235 -570 0
-235 571 0
-235 -572 0
-235 573 0
-235 574 0
-235 -575 0
-236 -568 0
-236 -569 0
-236 570 0
-236 571 0
-236 -572 0
-236 573 0
-236 574 0
-236 -575 0
-237 568 0
-237 -569 0
-237 570 0
-237 571 0
-237 -572 0
-237 573 0
-237 574 0
-237 -575 0
-238 -568 0
-238 569 0
-238 570 0
-238 571 0
-238 -572 0
-238 573 0
-238 574 0
-238 -575 0
-239 568 0
-239 569 0
-239 570 0
-239 571 0
-239 -572 0
-239 573 0
-239 574 0
-239 -575 0
-240 -568 0
-240 -569 0
-240 -570 0
-240 -571 0
-240 572 0
-240 573 0
-240 574 0
-240 -575 0
-241 568 0
-241 -569 0
-241 -570 0
-241 -571 0
-241 572 0
-241 573 0
-241 574 0
-241 -575 0
-242 -568 0
-242 569 0
-242 -570 0
-242 -571 0
-242 572 0
-242 573 0
-242 574 0
-242 -575 0
-243 568 0
-243 569 0
-243 -570 0
-243 -571 0
-243 572 0
-243 573 0
-243 574 0
-243 -575 0
-244 -568 0
-244 -569 0
-244 570 0
-244 -571 0
-244 572 0
-244 573 0
-244 574 0
-244 -575 0
-245 568 0
-245 -569 0
-245 570 0
-245 -571 0
-245 572 0
-245 573 0
-245 574 0
-245 -575 0
-246 -568 0
-246 569 0
-246 570 0
-246 -571 0
-246 572 0
-246 573 0
-246 574 0
-246 -575 0
-247 568 0
-247 569 0
-247 570 0
-247 -571 0
-247 572 0
-247 573 0
-247 574 0
-247 -575 0
-248 -568 0
-248 -569 0
-248 -570 0
-248 571 0
-248 572 0
-248 573 0
-248 574 0
-248 -575 0
-249 568 0
-249 -569 0
-249 -570 0
-249 571 0
-249 572 0
-249 573 0
-249 574 0
-249 -575 0
-250 -568 0
-250 569 0
-250 -570 0
-250 571 0
-250 572 0
-250 573 0
-250 574 0
-250 -575 0
-251 568 0
-251 569 0
-251 -570 0
-251 571 0
-251 572 0
-251 573 0
-251 574 0
-251 -575 0
-252 -568 0
-252 -569 0
-252 570 0
-252 571 0
-252 572 0
-252 573 0
-252 574 0
-252 -575 0
-253 568 0
-253 -569 0
-253 570 0
-253 571 0
-253 572 0
-253 573 0
-253 574 0
-253 -575 0
-254 -568 0
-254 569 0
-254 570 0
-254 571 0
-254 572 0
-254 573 0
-254 574 0
-254 -575 0
-255 568 0
-255 569 0
-255 570 0
-255 571 0
-255 572 0
-255 573 0
-255 574 0
-255 -575 0
-384 -568 0
-384 -569 0
-384 -570 0
-384 -571 0
-384 -572 0
-384 -573 0
-384 -574 0
-384 575 0
-385 568 0
-385 -569 0
-385 -570 0
-385 -571 0
-385 -572 0
-385 -573 0
-385 -574 0
-385 575 0
-386 -568 0
-386 569 0
-386 -570 0
-386 -571 0
-386 -572 0
-386 -573 0
-386 -574 0
-386 575 0
-387 568 0
-387 569 0
-387 -570 0
-387 -571 0
-387 -572 0
-387 -573 0
-387 -574 0
-387 575 0
-388 -568 0
-388 -569 0
-388 570 0
-388 -571 0
-388 -572 0
-388 -573 0
-388 -574 0
-388 575 0
-389 568 0
-389 -569 0
-389 570 0
-389 -571 0
-389 -572 0
-389 -573 0
-389 -574 0
-389 575 0
-390 -568 0
-390 569 0
-390 570 0
-390 -571 0
-390 -572 0
-390 -573 0
-390 -574 0
-390 575 0
-391 568 0
-391 569 0
-391 570 0
-391 -571 0
-391 -572 0
-391 -573 0
-391 -574 0
-391 575 0
-392 -568 0
-392 -569 0
-392 -570 0
-392 571 0
-392 -572 0
-392 -573 0
-392 -574 0
-392 575 0
-393 568 0
-393 -569 0
-393 -570 0
-393 571 0
-393 -572 0
-393 -573 0
-393 -574 0
-393 575 0
-394 -568 0
-394 569 0
-394 -570 0
-394 571 0
-394 -572 0
-394 -573 0
-394 -574 0
-394 575 0
-395 568 0
-395 569 0
-395 -570 0
-395 571 0
-395 -572 0
-395 -573 0
-395 -574 0
-395 575 0
-396 -568 0
-396 -569 0
-396 570 0
-396 571 0
-396 -572 0
-396 -573 0
-396 -574 0
-396 575 0
-397 568 0
-397 -569 0
-397 570 0
-397 571 0
-397 -572 0
-397 -573 0
-397 -574 0
-397 575 0
-398 -568 0
-398 569 0
-398 570 0
-398 571 0
-398 -572 0
-398 -573 0
-398 -574 0
-398 575 0
-399 568 0
-399 569 0
-399 570 0
-399 571 0
-399 -572 0
-399 -573 0
-399 -574 0
-399 575 0
-400 -568 0
-400 -569 0
-400 -570 0
-400 -571 0
-400 572 0
-400 -573 0
-400 -574 0
-400 575 0
-401 568 0
-401 -569 0
-401 -570 0
-401 -571 0
-401 572 0
-401 -573 0
-401 -574 0
-401 575 0
-402 -568 0
-402 569 0
-402 -570 0
-402 -571 0
-402 572 0
-402 -573 0
-402 -574 0
-402 575 0
-403 568 0
-403 569 0
-403 -570 0
-403 -571 0
-403 572 0
-403 -573 0
-403 -574 0
-403 575 0
-404 -568 0
-404 -569 0
-404 570 0
-404 -571 0
-404 572 0
-404 -573 0
-404 -574 0
-404 575 0
-405 568 0
-405 -569 0
-405 570 0
-405 -571 0
-405 572 0
-405 -573 0
-405 -574 0
-405 575 0
-406 -568 0
-406 569 0
-406 570 0
-406 -571 0
-406 572 0
-406 -573 0
-406 -574 0
-406 575 0
-407 568 0
-407 569 0
-407 570 0
-407 -571 0
-407 572 0
-407 -573 0
-407 -574 0
-407 575 0
-408 -568 0
-408 -569 0
-408 -570 0
-408 571 0
-408 572 0
-408 -573 0
-408 -574 0
-408 575 0
-409 568 0
-409 -569 0
-409 -570 0
-409 571 0
-409 572 0
-409 -573 0
-409 -574 0
-409 575 0
-410 -568 0
-410 569 0
-410 -570 0
-410 571 0
-410 572 0
-410 -573 0
-410 -574 0
-410 575 0
-411 568 0
-411 569 0
-411 -570 0
-411 571 0
-411 572 0
-411 -573 0
-411 -574 0
-411 575 0
-412 -568 0
-412 -569 0
-412 570 0
-412 571 0
-412 572 0
-412 -573 0
-412 -574 0
-412 575 0
-413 568 0
-413 -569 0
-413 570 0
-413 571 0
-413 572 0
-413 -573 0
-413 -574 0
-413 575 0
-414 -568 0
-414 569 0
-414 570 0
-414 571 0
-414 572 0
-414 -573 0
-414 -574 0
-414 575 0
-415 568 0
-415 569 0
-415 570 0
-415 571 0
-415 572 0
-415 -573 0
-415 -574 0
-415 575 0
-416 -568 0
-416 -569 0
-416 -570 0
-416 -571 0
-416 -572 0
-416 573 0
-416 -574 0
-416 575 0
-417 568 0
-417 -569 0
-417 -570 0
-417 -571 0
-417 -572 0
-417 573 0
-417 -574 0
-417 575 0
-418 -568 0
-418 569 0
-418 -570 0
-418 -571 0
-418 -572 0
-418 573 0
-418 -574 0
-418 575 0
-419 568 0
-419 569 0
-419 -570 0
-419 -571 0
-419 -572 0
-419 573 0
-419 -574 0
-419 575 0
-420 -568 0
-420 -569 0
-420 570 0
-420 -571 0
-420 -572 0
-420 573 0
-420 -574 0
-420 575 0
-421 568 0
-421 -569 0
-421 570 0
-421 -571 0
-421 -572 0
-421 573 0
-421 -574 0
-421 575 0
-422 -568 0
-422 569 0
-422 570 0
-422 -571 0
-422 -572 0
-422 573 0
-422 -574 0
-422 575 0
-423 568 0
-423 569 0
-423 570 0
-423 -571 0
-423 -572 0
-423 573 0
-423 -574 0
-423 575 0
-424 -568 0
-424 -569 0
-424 -570 0
-424 571 0
-424 -572 0
-424 573 0
-424 -574 0
-424 575 0
-425 568 0
-425 -569 0
-425 -570 0
-425 571 0
-425 -572 0
-425 573 0
-425 -574 0
-425 575 0
-426 -568 0
-426 569 0
-426 -570 0
-426 571 0
-426 -572 0
-426 573 0
-426 -574 0
-426 575 0
-427 568 0
-427 569 0
-427 -570 0
-427 571 0
-427 -572 0
-427 573 0
-427 -574 0
-427 575 0
-428 -568 0
-428 -569 0
-428 570 0
-428 571 0
-428 -572 0
-428 573 0
-428 -574 0
-428 575 0
-429 568 0
-429 -569 0
-429 570 0
-429 571 0
-429 -572 0
-429 573 0
-429 -574 0
-429 575 0
-430 -568 0
-430 569 0
-430 570 0
-430 571 0
-430 -572 0
-430 573 0
-430 -574 0
-430 575 0
-431 568 0
-431 569 0
-431 570 0
-431 571 0
-431 -572 0
-431 573 0
-431 -574 0
-431 575 0
-432 -568 0
-432 -569 0
-432 -570 0
-432 -571 0
-432 572 0
-432 573 0
-432 -574 0
-432 575 0
-433 568 0
-433 -569 0
-433 -570 0
-433 -571 0
-433 572 0
-433 573 0
-433 -574 0
-433 575 0
-434 -568 0
-434 569 0
-434 -570 0
-434 -571 0
-434 572 0
-434 573 0
-434 -574 0
-434 575 0
-435 568 0
-435 569 0
-435 -570 0
-435 -571 0
-435 572 0
-435 573 0
-435 -574 0
-435 575 0
-436 -568 0
-436 -569 0
-436 570 0
-436 -571 0
-436 572 0
-436 573 0
-436 -574 0
-436 575 0
-437 568 0
-437 -569 0
-437 570 0
-437 -571 0
-437 572 0
-437 573 0
-437 -574 0
-437 575 0
-438 -568 0
-438 569 0
-438 570 0
-438 -571 0
-438 572 0
-438 573 0
-438 -574 0
-438 575 0
-439 568 0
-439 569 0
-439 570 0
-439 -571 0
-439 572 0
-439 573 0
-439 -574 0
-439 575 0
-440 -568 0
-440 -569 0
-440 -570 0
-440 571 0
-440 572 0
-440 573 0
-440 -574 0
-440 575 0
-441 568 0
-441 -569 0
-441 -570 0
-441 571 0
-441 572 0
-441 573 0
-441 -574 0
-441 575 0
-442 -568 0
-442 569 0
-442 -570 0
-442 571 0
-442 572 0
-442 573 0
-442 -574 0
-442 575 0
-443 568 0
-443 569 0
-443 -570 0
-443 571 0
-443 572 0
-443 573 0
-443 -574 0
-443 575 0
-444 -568 0
-444 -569 0
-444 570 0
-444 571 0
-444 572 0
-444 573 0
-444 -574 0
-444 575 0
-445 568 0
-445 -569 0
-445 570 0
-445 571 0
-445 572 0
-445 573 0
-445 -574 0
-445 575 0
-446 -568 0
-446 569 0
-446 570 0
-446 571 0
-446 572 0
-446 573 0
-446 -574 0
-446 575 0
-447 568 0
-447 569 0
-447 570 0
-447 571 0
-447 572 0
-447 573 0
-447 -574 0
-447 575 0
-448 -568 0
-448 -569 0
-448 -570 0
-448 -571 0
-448 -572 0
-448 -573 0
-448 574 0
-448 575 0
-449 568 0
-449 -569 0
-449 -570 0
-449 -571 0
-449 -572 0
-449 -573 0
-449 574 0
-449 575 0
-450 -568 0
-450 569 0
-450 -570 0
-450 -571 0
-450 -572 0
-450 -573 0
-450 574 0
-450 575 0
-451 568 0
-451 569 0
-451 -570 0
-451 -571 0
-451 -572 0
-451 -573 0
-451 574 0
-451 575 0
-452 -568 0
-452 -569 0
-452 570 0
-452 -571 0
-452 -572 0
-452 -573 0
-452 574 0
-452 575 0
-453 568 0
-453 -569 0
-453 570 0
-453 -571 0
-453 -572 0
-453 -573 0
-453 574 0
-453 575 0
-454 -568 0
-454 569 0
-454 570 0
-454 -571 0
-454 -572 0
-454 -573 0
-454 574 0
-454 575 0
-455 568 0
-455 569 0
-455 570 0
-455 -571 0
-455 -572 0
-455 -573 0
-455 574 0
-455 575 0
-456 -568 0
-456 -569 0
-456 -570 0
-456 571 0
-456 -572 0
-456 -573 0
-456 574 0
-456 575 0
-457 568 0
-457 -569 0
-457 -570 0
-457 571 0
-457 -572 0
-457 -573 0
-457 574 0
-457 575 0
-458 -568 0
-458 569 0
-458 -570 0
-458 571 0
-458 -572 0
-458 -573 0
-458 574 0
-458 575 0
-459 568 0
-459 569 0
-459 -570 0
-459 571 0
-459 -572 0
-459 -573 0
-459 574 0
-459 575 0
-460 -568 0
-460 -569 0
-460 570 0
-460 571 0
-460 -572 0
-460 -573 0
-460 574 0
-460 575 0
-461 568 0
-461 -569 0
-461 570 0
-461 571 0
-461 -572 0
-461 -573 0
-461 574 0
-461 575 0
-462 -568 0
-462 569 0
-462 570 0
-462 571 0
-462 -572 0
-462 -573 0
-462 574 0
-462 575 0
-463 568 0
-463 569 0
-463 570 0
-463 571 0
-463 -572 0
-463 -573 0
-463 574 0
-463 575 0
-464 -568 0
-464 -569 0
-464 -570 0
-464 -571 0
-464 572 0
-464 -573 0
-464 574 0
-464 575 0
-465 568 0
-465 -569 0
-465 -570 0
-465 -571 0
-465 572 0
-465 -573 0
-465 574 0
-465 575 0
-466 -568 0
-466 569 0
-466 -570 0
-466 -571 0
-466 572 0
-466 -573 0
-466 574 0
-466 575 0
-467 568 0
-467 569 0
-467 -570 0
-467 -571 0
-467 572 0
-467 -573 0
-467 574 0
-467 575 0
-468 -568 0
-468 -569 0
-468 570 0
-468 -571 0
-468 572 0
-468 -573 0
-468 574 0
-468 575 0
-469 568 0
-469 -569 0
-469 570 0
-469 -571 0
-469 572 0
-469 -573 0
-469 574 0
-469 575 0
-470 -568 0
-470 569 0
-470 570 0
-470 -571 0
-470 572 0
-470 -573 0
-470 574 0
-470 575 0
-471 568 0
-471 569 0
-471 570 0
-471 -571 0
-471 572 0
-471 -573 0
-471 574 0
-471 575 0
-472 -568 0
-472 -569 0
-472 -570 0
-472 571 0
-472 572 0
-472 -573 0
-472 574 0
-472 575 0
-473 568 0
-473 -569 0
-473 -570 0
-473 571 0
-473 572 0
-473 -573 0
-473 574 0
-473 575 0
-474 -568 0
-474 569 0
-474 -570 0
-474 571 0
-474 572 0
-474 -573 0
-474 574 0
-474 575 0
-475 568 0
-475 569 0
-475 -570 0
-475 571 0
-475 572 0
-475 -573 0
-475 574 0
-475 575 0
-476 -568 0
-476 -569 0
-476 570 0
-476 571 0
-476 572 0
-476 -573 0
-476 574 0
-476 575 0
-477 568 0
-477 -569 0
-477 570 0
-477 571 0
-477 572 0
-477 -573 0
-477 574 0
-477 575 0
-478 -568 0
-478 569 0
-478 570 0
-478 571 0
-478 572 0
-478 -573 0
-478 574 0
-478 575 0
-479 568 0
-479 569 0
-479 570 0
-479 571 0
-479 572 0
-479 -573 0
-479 574 0
-479 575 0
-480 -568 0
-480 -569 0
-480 -570 0
-480 -571 0
-480 -572 0
-480 573 0
-480 574 0
-480 575 0
-481 568 0
-481 -569 0
-481 -570 0
-481 -571 0
-481 -572 0
-481 573 0
-481 574 0
-481 575 0
-482 -568 0
-482 569 0
-482 -570 0
-482 -571 0
-482 -572 0
-482 573 0
-482 574 0
-482 575 0
-483 568 0
-483 569 0
-483 -570 0
-483 -571 0
-483 -572 0
-483 573 0
-483 574 0
-483 575 0
-484 -568 0
-484 -569 0
-484 570 0
-484 -571 0
-484 -572 0
-484 573 0
-484 574 0
-484 575 0
-485 568 0
-485 -569 0
-485 570 0
-485 -571 0
-485 -572 0
-485 573 0
-485 574 0
-485 575 0
-486 -568 0
-486 569 0
-486 570 0
-486 -571 0
-486 -572 0
-486 573 0
-486 574 0
-486 575 0
-487 568 0
-487 569 0
-487 570 0
-487 -571 0
-487 -572 0
-487 573 0
-487 574 0
-487 575 0
-488 -568 0
-488 -569 0
-488 -570 0
-488 571 0
-488 -572 0
-488 573 0
-488 574 0
-488 575 0
-489 568 0
-489 -569 0
-489 -570 0
-489 571 0
-489 -572 0
-489 573 0
-489 574 0
-489 575 0
-490 -568 0
-490 569 0
-490 -570 0
-490 571 0
-490 -572 0
-490 573 0
-490 574 0
-490 575 0
-491 568 0
-491 569 0
-491 -570 0
-491 571 0
-491 -572 0
-491 573 0
-491 574 0
-491 575 0
-492 -568 0
-492 -569 0
-492 570 0
-492 571 0
-492 -572 0
-492 573 0
-492 574 0
-492 575 0
-493 568 0
-493 -569 0
-493 570 0
-493 571 0
-493 -572 0
-493 573 0
-493 574 0
-493 575 0
-494 -568 0
-494 569 0
-494 570 0
-494 571 0
-494 -572 0
-494 573 0
-494 574 0
-494 575 0
-495 568 0
-495 569 0
-495 570 0
-495 571 0
-495 -572 0
-495 573 0
-495 574 0
-495 575 0
-496 -568 0
-496 -569 0
-496 -570 0
-496 -571 0
-496 572 0
-496 573 0
-496 574 0
-496 575 0
-497 568 0
-497 -569 0
-497 -570 0
-497 -571 0
-497 572 0
-497 573 0
-497 574 0
-497 575 0
-498 -568 0
-498 569 0
-498 -570 0
-498 -571 0
-498 572 0
-498 573 0
-498 574 0
-498 575 0
-499 568 0
-499 569 0
-499 -570 0
-499 -571 0
-499 572 0
-499 573 0
-499 574 0
-499 575 0
-500 -568 0
-500 -569 0
-500 570 0
-500 -571 0
-500 572 0
-500 573 0
-500 574 0
-500 575 0
-501 568 0
-501 -569 0
-501 570 0
-501 -571 0
-501 572 0
-501 573 0
-501 574 0
-501 575 0
-502 -568 0
-502 569 0
-502 570 0
-502 -571 0
-502 572 0
-502 573 0
-502 574 0
-502 575 0
-503 568 0
-503 569 0
-503 570 0
-503 -571 0
-503 572 0
-503 573 0
-503 574 0
-503 575 0
-504 -568 0
-504 -569 0
-504 -570 0
-504 571 0
-504 572 0
-504 573 0
-504 574 0
-504 575 0
-505 568 0
-505 -569 0
-505 -570 0
-505 571 0
-505 572 0
-505 573 0
-505 574 0
-505 575 0
-506 -568 0
-506 569 0
-506 -570 0
-506 571 0
-506 572 0
-506 573 0
-506 574 0
-506 575 0
-507 568 0
-507 569 0
-507 -570 0
-507 571 0
-507 572 0
-507 573 0
-507 574 0
-507 575 0
-508 -568 0
-508 -569 0
-508 570 0
-508 571 0
-508 572 0
-508 573 0
-508 574 0
-508 575 0
-509 568 0
-509 -569 0
-509 570 0
-509 571 0
-509 572 0
-509 573 0
-509 574 0
-509 575 0
-510 -568 0
-510 569 0
-510 570 0
-510 571 0
-510 572 0
-510 573 0
-510 574 0
-510 575 0
-511 568 0
-511 569 0
-511 570 0
-511 571 0
-511 572 0
-511 573 0
-511 574 0
-511 575 0
256 257 258 259 260 261 262 263 264 265 266 267 268 269 270 271 272 273 274 275 276 277 278 279 280 281 282 283 284 285 286 287 288 289 290 291 292 293 294 295 296 297 298 299 300 301 302 303 304 305 306 307 308 309 310 311 312 313 314 315 316 317 318 319 320 321 322 323 324 325 326 327 328 329 330 331 332 333 334 335 336 337 338 339 340 341 342 343 344 345 346 347 348 349 350 351 352 353 354 355 356 357 358 359 360 361 362 363 364 365 366 367 368 369 370 371 372 373 374 375 376 377 378 379 380 381 382 383 384 385 386 387 388 389 390 391 392 393 394 395 396 397 398 399 400 401 402 403 404 405 406 407 408 409 410 411 412 413 414 415 416 417 418 419 420 421 422 423 424 425 426 427 428 429 430 431 432 433 434 435 436 437 438 439 440 441 442 443 444 445 446 447 448 449 450 451 452 453 454 455 456 457 458 459 460 461 462 463 464 465 466 467 468 469 470 471 472 473 474 475 476 477 478 479 480 481 482 483 484 485 486 487 488 489 490 491 492 493 494 495 496 497 498 499 500 501 502 503 504 505 506 507 508 509 510 511 0
-256 -576 0
-256 -577 0
-256 -578 0
-256 -579 0
-256 -580 0
-256 -581 0
-256 -582 0
-256 -583 0
-257 576 0
-257 -577 0
-257 -578 0
-257 -579 0
-257 -580 0
-257 -581 0
-257 -582 0
-257 -583 0
-258 -576 0
-258 577 0
-258 -578 0
-258 -579 0
-258 -580 0
-258 -581 0
-258 -582 0
-258 -583 0
-259 576 0
-259 577 0
-259 -578 0
-259 -579 0
-259 -580 0
-259 -581 0
-259 -582 0
-259 -583 0
-260 -576 0
-260 -577 0
-260 578 0
-260 -579 0
-260 -580 0
-260 -581 0
-260 -582 0
-260 -583 0
-261 576 0
-261 -577 0
-261 578 0
-261 -579 0
-261 -580 0
-261 -581 0
-261 -582 0
-261 -583 0
-262 -576 0
-262 577 0
-262 578 0
-262 -579 0
-262 -580 0
-262 -581 0
-262 -582 0
-262 -583 0
-263 576 0
-263 577 0
-263 578 0
-263 -579 0
-263 -580 0
-263 -581 0
-263 -582 0
-263 -583 0
-264 -576 0
-264 -577 0
-264 -578 0
-264 579 0
-264 -580 0
-264 -581 0
-264 -582 0
-264 -583 0
-265 576 0
-265 -577 0
-265 -578 0
-265 579 0
-265 -580 0
-265 -581 0
-265 -582 0
-265 -583 0
-266 -576 0
-266 577 0
-266 -578 0
-266 579 0
-266 -580 0
-266 -581 0
-266 -582 0
-266 -583 0
-267 576 0
-267 577 0
-267 -578 0
-267 579 0
-267 -580 0
-267 -581 0
-267 -582 0
-267 -583 0
-268 -576 0
-268 -577 0
-268 578 0
-268 579 0
-268 -580 0
-268 -581 0
-268 -582 0
-268 -583 0
-269 576 0
-269 -577 0
-269 578 0
-269 579 0
-269 -580 0
-269 -581 0
-269 -582 0
-269 -583 0
-270 -576 0
-270 577 0
-270 578 0
-270 579 0
-270 -580 0
-270 -581 0
-270 -582 0
-270 -583 0
-271 576 0
-271 577 0
-271 578 0
-271 579 0
-271 -580 0
-271 -581 0
-271 -582 0
-271 -583 0
-272 -576 0
-272 -577 0
-272 -578 0
-272 -579 0
-272 580 0
-272 -581 0
-272 -582 0
-272 -583 0
-273 576 0
-273 -577 0
-273 -578 0
-273 -579 0
-273 580 0
-273 -581 0
-273 -582 0
-273 -583 0
-274 -576 0
-274 577 0
-274 -578 0
-274 -579 0
-274 580 0
-274 -581 0
-274 -582 0
-274 -583 0
-275 576 0
-275 577 0
-275 -578 0
-275 -579 0
-275 580 0
-275 -581 0
-275 -582 0
-275 -583 0
-276 -576 0
-276 -577 0
-276 578 0
-276 -579 0
-276 580 0
-276 -581 0
-276 -582 0
-276 -583 0
-277 576 0
-277 -577 0
-277 578 0
-277 -579 0
-277 580 0
-277 -581 0
-277 -582 0
-277 -583 0
-278 -576 0
-278 577 0
-278 578 0
-278 -579 0
-278 580 0
-278 -581 0
-278 -582 0
-278 -583 0
-279 576 0
-279 577 0
-279 578 0
-279 -579 0
-279 580 0
-279 -581 0
-279 -582 0
-279 -583 0
-280 -576 0
-280 -577 0
-280 -578 0
-280 579 0
-280 580 0
-280 -581 0
-280 -582 0
-280 -583 0
-281 576 0
-281 -577 0
-281 -578 0
-281 579 0
-281 580 0
-281 -581 0
-281 -582 0
-281 -583 0
-282 -576 0
-282 577 0
-282 -578 0
-282 579 0
-282 580 0
-282 -581 0
-282 -582 0
-282 -583 0
-283 576 0
-283 577 0
-283 -578 0
-283 579 0
-283 580 0
-283 -581 0
-283 -582 0
-283 -583 0
-284 -576 0
-284 -577 0
-284 578 0
-284 579 0
-284 580 0
-284 -581 0
-284 -582 0
-284 -583 0
-285 576 0
-285 -577 0
-285 578 0
-285 579 0
-285 580 0
-285 -581 0
-285 -582 0
-285 -583 0
-286 -576 0
-286 577 0
-286 578 0
-286 579 0
-286 580 0
-286 -581 0
-286 -582 0
-286 -583 0
-287 576 0
-287 577 0
-287 578 0
-287 579 0
-287 580 0
-287 -581 0
-287 -582 0
-287 -583 0
-288 -576 0
-288 -577 0
-288 -578 0
-288 -579 0
-288 -580 0
-288 581 0
-288 -582 0
-288 -583 0
-289 576 0
-289 -577 0
-289 -578 0
-289 -579 0
-289 -580 0
-289 581 0
-289 -582 0
-289 -583 0
-290 -576 0
-290 577 0
-290 -578 0
-290 -579 0
-290 -580 0
-290 581 0
-290 -582 0
-290 -583 0
-291 576 0
-291 577 0
-291 -578 0
-291 -579 0
-291 -580 0
-291 581 0
-291 -582 0
-291 -583 0
-292 -576 0
-292 -577 0
-292 578 0
-292 -579 0
-292 -580 0
-292 581 0
-292 -582 0
-292 -583 0
-293 576 0
-293 -577 0
-293 578 0
-293 -579 0
-293 -580 0
-293 581 0
-293 -582 0
-293 -583 0
-294 -576 0
-294 577 0
-294 578 0
-294 -579 0
-294 -580 0
-294 581 0
-294 -582 0
-294 -583 0
-295 576 0
-295 577 0
-295 578 0
-295 -579 0
-295 -580 0
-295 581 0
-295 -582 0
-295 -583 0
-296 -576 0
-296 -577 0
-296 -578 0
-296 579 0
-296 -580 0
-296 581 0
-296 -582 0
-296 -583 0
-297 576 0
-297 -577 0
-297 -578 0
-297 579 0
-297 -580 0
-297 581 0
-297 -582 0
-297 -583 0
-298 -576 0
-298 577 0
-298 -578 0
-298 579 0
-298 -580 0
-298 581 0
-298 -582 0
-298 -583 0
-299 576 0
-299 577 0
-299 -578 0
-299 579 0
-299 -580 0
-299 581 0
-299 -582 0
-299 -583 0
-300 -576 0
-300 -577 0
-300 578 0
-300 579 0
-300 -580 0
-300 581 0
-300 -582 0
-300 -583 0
-301 576 0
-301 -577 0
-301 578 0
-301 579 0
-301 -580 0
-301 581 0
-301 -582 0
-301 -583 0
-302 -576 0
-302 577 0
-302 578 0
-302 579 0
-302 -580 0
-302 581 0
-302 -582 0
-302 -583 0
-303 576 0
-303 577 0
-303 578 0
-303 579 0
-303 -580 0
-303 581 0
-303 -582 0
-303 -583 0
-304 -576 0
-304 -577 0
-304 -578 0
-304 -579 0
-304 580 0
-304 581 0
-304 -582 0
-304 -583 0
-305 576 0
-305 -577 0
-305 -578 0
-305 -579 0
-305 580 0
-305 581 0
-305 -582 0
-305 -583 0
-306 -576 0
-306 577 0
-306 -578 0
-306 -579 0
-306 580 0
-306 581 0
-306 -582 0
-306 -583 0
-307 576 0
-307 577 0
-307 -578 0
-307 -579 0
-307 580 0
-307 581 0
-307 -582 0
-307 -583 0
-308 -576 0
-308 -577 0
-308 578 0
-308 -579 0
-308 580 0
-308 581 0
-308 -582 0
-308 -583 0
-309 576 0
-309 -577 0
-309 578 0
-309 -579 0
-309 580 0
-309 581 0
-309 -582 0
-309 -583 0
-310 -576 0
-310 577 0
-310 578 0
-310 -579 0
-310 580 0
-310 581 0
-310 -582 0
-310 -583 0
-311 576 0
-311 577 0
-311 578 0
-311 -579 0
-311 580 0
-311 581 0
-311 -582 0
-311 -583 0
-312 -576 0
-312 -577 0
-312 -578 0
-312 579 0
-312 580 0
-312 581 0
-312 -582 0
-312 -583 0
-313 576 0
-313 -577 0
-313 -578 0
-313 579 0
-313 580 0
-313 581 0
-313 -582 0
-313 -583 0
-314 -576 0
-314 577 0
-314 -578 0
-314 579 0
-314 580 0
-314 581 0
-314 -582 0
-314 -583 0
-315 576 0
-315 577 0
-315 -578 0
-315 579 0
-315 580 0
-315 581 0
-315 -582 0
-315 -583 0
-316 -576 0
-316 -577 0
-316 578 0
-316 579 0
-316 580 0
-316 581 0
-316 -582 0
-316 -583 0
-317 576 0
-317 -577 0
-317 578 0
-317 579 0
-317 580 0
-317 581 0
-317 -582 0
-317 -583 0
-318 -576 0
-318 577 0
-318 578 0
-318 579 0
-318 580 0
-318 581 0
-318 -582 0
-318 -583 0
-319 576 0
-319 577 0
-319 578 0
-319 579 0
-319 580 0
-319 581 0
-319 -582 0
-319 -583 0
-320 -576 0
-320 -577 0
-320 -578 0
-320 -579 0
-320 -580 0
-320 -581 0
-320 582 0
-320 -583 0
-321 576 0
-321 -577 0
-321 -578 0
-321 -579 0
-321 -580 0
-321 -581 0
-321 582 0
-321 -583 0
-322 -576 0
-322 577 0
-322 -578 0
-322 -579 0
-322 -580 0
-322 -581 0
-322 582 0
-322 -583 0
-323 576 0
-323 577 0
-323 -578 0
-323 -579 0
-323 -580 0
-323 -581 0
-323 582 0
-323 -583 0
-324 -576 0
-324 -577 0
-324 578 0
-324 -579 0
-324 -580 0
-324 -581 0
-324 582 0
-324 -583 0
-325 576 0
-325 -577 0
-325 578 0
-325 -579 0
-325 -580 0
-325 -581 0
-325 582 0
-325 -583 0
-326 -576 0
-326 577 0
-326 578 0
-326 -579 0
-326 -580 0
-326 -581 0
-326 582 0
-326 -583 0
-327 576 0
-327 577 0
-327 578 0
-327 -579 0
-327 -580 0
-327 -581 0
-327 582 0
-327 -583 0
-328 -576 0
-328 -577 0
-328 -578 0
-328 579 0
-328 -580 0
-328 -581 0
-328 582 0
-328 -583 0
-329 576 0
-329 -577 0
-329 -578 0
-329 579 0
-329 -580 0
-329 -581 0
-329 582 0
-329 -583 0
-330 -576 0
-330 577 0
-330 -578 0
-330 579 0
-330 -580 0
-330 -581 0
-330 582 0
-330 -583 0
-331 576 0
-331 577 0
-331 -578 0
-331 579 0
-331 -580 0
-331 -581 0
-331 582 0
-331 -583 0
-332 -576 0
-332 -577 0
-332 578 0
-332 579 0
-332 -580 0
-332 -581 0
-332 582 0
-332 -583 0
-333 576 0
-333 -577 0
-333 578 0
-333 579 0
-333 -580 0
-333 -581 0
-333 582 0
-333 -583 0
-334 -576 0
-334 577 0
-334 578 0
-334 579 0
-334 -580 0
-334 -581 0
-334 582 0
-334 -583 0
-335 576 0
-335 577 0
-335 578 0
-335 579 0
-335 -580 0
-335 -581 0
-335 582 0
-335 -583 0
-336 -576 0
-336 -577 0
-336 -578 0
-336 -579 0
-336 580 0
-336 -581 0
-336 582 0
-336 -583 0
-337 576 0
-337 -577 0
-337 -578 0
-337 -579 0
-337 580 0
-337 -581 0
-337 582 0
-337 -583 0
-338 -576 0
-338 577 0
-338 -578 0
-338 -579 0
-338 580 0
-338 -581 0
-338 582 0
-338 -583 0
-339 576 0
-339 577 0
-339 -578 0
-339 -579 0
-339 580 0
-339 -581 0
-339 582 0
-339 -583 0
-340 -576 0
-340 -577 0
-340 578 0
-340 -579 0
-340 580 0
-340 -581 0
-340 582 0
-340 -583 0
-341 576 0
-341 -577 0
-341 578 0
-341 -579 0
-341 580 0
-341 -581 0
-341 582 0
-341 -583 0
-342 -576 0
-342 577 0
-342 578 0
-342 -579 0
-342 580 0
-342 -581 0
-342 582 0
-342 -583 0
-343 576 0
-343 577 0
-343 578 0
-343 -579 0
-343 580 0
-343 -581 0
-343 582 0
-343 -583 0
-344 -576 0
-344 -577 0
-344 -578 0
-344 579 0
-344 580 0
-344 -581 0
-344 582 0
-344 -583 0
-345 576 0
-345 -577 0
-345 -578 0
-345 579 0
-345 580 0
-345 -581 0
-345 582 0
-345 -583 0
-346 -576 0
-346 577 0
-346 -578 0
-346 579 0
-346 580 0
-346 -581 0
-346 582 0
-346 -583 0
-347 576 0
-347 577 0
-347 -578 0
-347 579 0
-347 580 0
-347 -581 0
-347 582 0
-347 -583 0
-348 -576 0
-348 -577 0
-348 578 0
-348 579 0
-348 580 0
-348 -581 0
-348 582 0
-348 -583 0
-349 576 0
-349 -577 0
-349 578 0
-349 579 0
-349 580 0
-349 -581 0
-349 582 0
-349 -583 0
-350 -576 0
-350 577 0
-350 578 0
-350 579 0
-350 580 0
-350 -581 0
-350 582 0
-350 -583 0
-351 576 0
-351 577 0
-351 578 0
-351 579 0
-351 580 0
-351 -581 0
-351 582 0
-351 -583 0
-352 -576 0
-352 -577 0
-352 -578 0
-352 -579 0
-352 -580 0
-352 581 0
-352 582 0
-352 -583 0
-353 576 0
-353 -577 0
-353 -578 0
-353 -579 0
-353 -580 0
-353 581 0
-353 582 0
-353 -583 0
-354 -576 0
-354 577 0
-354 -578 0
-354 -579 0
-354 -580 0
-354 581 0
-354 582 0
-354 -583 0
-355 576 0
-355 577 0
-355 -578 0
-355 -579 0
-355 -580 0
-355 581 0
-355 582 0
-355 -583 0
-356 -576 0
-356 -577 0
-356 578 0
-356 -579 0
-356 -580 0
-356 581 0
-356 582 0
-356 -583 0
-357 576 0
-357 -577 0
-357 578 0
-357 -579 0
-357 -580 0
-357 581 0
-357 582 0
-357 -583 0
-358 -576 0
-358 577 0
-358 578 0
-358 -579 0
-358 -580 0
-358 581 0
-358 582 0
-358 -583 0
-359 576 0
-359 577 0
-359 578 0
-359 -579 0
-359 -580 0
-359 581 0
-359 582 0
-359 -583 0
-360 -576 0
-360 -577 0
-360 -578 0
-360 579 0
-360 -580 0
-360 581 0
-360 582 0
-360 -583 0
-361 576 0
-361 -577 0
-361 -578 0
-361 579 0
-361 -580 0
-361 581 0
-361 582 0
-361 -583 0
-362 -576 0
-362 577 0
-362 -578 0
-362 579 0
-362 -580 0
-362 581 0
-362 582 0
-362 -583 0
-363 576 0
-363 577 0
-363 -578 0
-363 579 0
-363 -580 0
-363 581 0
-363 582 0
-363 -583 0
-364 -576 0
-364 -577 0
-364 578 0
-364 579 0
-364 -580 0
-364 581 0
-364 582 0
-364 -583 0
-365 576 0
-365 -577 0
-365 578 0
-365 579 0
-365 -580 0
-365 581 0
-365 582 0
-365 -583 0
-366 -576 0
-366 577 0
-366 578 0
-366 579 0
-366 -580 0
-366 581 0
-366 582 0
-366 -583 0
-367 576 0
-367 577 0
-367 578 0
-367 579 0
-367 -580 0
-367 581 0
-367 582 0
-367 -583 0
-368 -576 0
-368 -577 0
-368 -578 0
-368 -579 0
-368 580 0
-368 581 0
-368 582 0
-368 -583 0
-369 576 0
-369 -577 0
-369 -578 0
-369 -579 0
-369 580 0
-369 581 0
-369 582 0
-369 -583 0
-370 -576 0
-370 577 0
-370 -578 0
-370 -579 0
-370 580 0
-370 581 0
-370 582 0
-370 -583 0
-371 576 0
-371 577 0
-371 -578 0
-371 -579 0
-371 580 0
-371 581 0
-371 582 0
-371 -583 0
-372 -576 0
-372 -577 0
-372 578 0
-372 -579 0
-372 580 0
-372 581 0
-372 582 0
-372 -583 0
-373 576 0
-373 -577 0
-373 578 0
-373 -579 0
-373 580 0
-373 581 0
-373 582 0
-373 -583 0
-374 -576 0
-374 577 0
-374 578 0
-374 -579 0
-374 580 0
-374 581 0
-374 582 0
-374 -583 0
-375 576 0
-375 577 0
-375 578 0
-375 -579 0
-375 580 0
-375 581 0
-375 582 0
-375 -583 0
-376 -576 0
-376 -577 0
-376 -578 0
-376 579 0
-376 580 0
-376 581 0
-376 582 0
-376 -583 0
-377 576 0
-377 -577 0
-377 -578 0
-377 579 0
-377 580 0
-377 581 0
-377 582 0
-377 -583 0
-378 -576 0
-378 577 0
-378 -578 0
-378 579 0
-378 580 0
-378 581 0
-378 582 0
-378 -583 0
-379 576 0
-379 577 0
-379 -578 0
-379 579 0
-379 580 0
-379 581 0
-379 582 0
-379 -583 0
-380 -576 0
-380 -577 0
-380 578 0
-380 579 0
-380 580 0
-380 581 0
-380 582 0
-380 -583 0
-381 576 0
-381 -577 0
-381 578 0
-381 579 0
-381 580 0
-381 581 0
-381 582 0
-381 -583 0
-382 -576 0
-382 577 0
-382 578 0
-382 579 0
-382 580 0
-382 581 0
-382 582 0
-382 -583 0
-383 576 0
-383 577 0
-383 578 0
-383 579 0
-383 580 0
-383 581 0
-383 582 0
-383 -583 0
-384 -576 0
-384 -577 0
-384 -578 0
-384 -579 0
-384 -580 0
-384 -581 0
-384 -582 0
-384 583 0
-385 576 0
-385 -577 0
-385 -578 0
-385 -579 0
-385 -580 0
-385 -581 0
-385 -582 0
-385 583 0
-386 -576 0
-386 577 0
-386 -578 0
-386 -579 0
-386 -580 0
-386 -581 0
-386 -582 0
-386 583 0
-387 576 0
-387 577 0
-387 -578 0
-387 -579 0
-387 -580 0
-387 -581 0
-387 -582 0
-387 583 0
-388 -576 0
-388 -577 0
-388 578 0
-388 -579 0
-388 -580 0
-388 -581 0
-388 -582 0
-388 583 0
-389 576 0
-389 -577 0
-389 578 0
-389 -579 0
-389 -580 0
-389 -581 0
-389 -582 0
-389 583 0
-390 -576 0
-390 577 0
-390 578 0
-390 -579 0
-390 -580 0
-390 -581 0
-390 -582 0
-390 583 0
-391 576 0
-391 577 0
-391 578 0
-391 -579 0
-391 -580 0
-391 -581 0
-391 -582 0
-391 583 0
-392 -576 0
-392 -577 0
-392 -578 0
-392 579 0
-392 -580 0
-392 -581 0
-392 -582 0
-392 583 0
-393 576 0
-393 -577 0
-393 -578 0
-393 579 0
-393 -580 0
-393 -581 0
-393 -582 0
-393 583 0
-394 -576 0
-394 577 0
-394 -578 0
-394 579 0
-394 -580 0
-394 -581 0
-394 -582 0
-394 583 0
-395 576 0
-395 577 0
-395 -578 0
-395 579 0
-395 -580 0
-395 -581 0
-395 -582 0
-395 583 0
-396 -576 0
-396 -577 0
-396 578 0
-396 579 0
-396 -580 0
-396 -581 0
-396 -582 0
-396 583 0
-397 576 0
-397 -577 0
-397 578 0
-397 579 0
-397 -580 0
-397 -581 0
-397 -582 0
-397 583 0
-398 -576 0
-398 577 0
-398 578 0
-398 579 0
-398 -580 0
-398 -581 0
-398 -582 0
-398 583 0
-399 576 0
-399 577 0
-399 578 0
-399 579 0
-399 -580 0
-399 -581 0
-399 -582 0
-399 583 0
-400 -576 0
-400 -577 0
-400 -578 0
-400 -579 0
-400 580 0
-400 -581 0
-400 -582 0
-400 583 0
-401 576 0
-401 -577 0
-401 -578 0
-401 -579 0
-401 580 0
-401 -581 0
-401 -582 0
-401 583 0
-402 -576 0
-402 577 0
-402 -578 0
-402 -579 0
-402 580 0
-402 -581 0
-402 -582 0
-402 583 0
-403 576 0
-403 577 0
-403 -578 0
-403 -579 0
-403 580 0
-403 -581 0
-403 -582 0
-403 583 0
-404 -576 0
-404 -577 0
-404 578 0
-404 -579 0
-404 580 0
-404 -581 0
-404 -582 0
-404 583 0
-405 576 0
-405 -577 0
-405 578 0
-405 -579 0
-405 580 0
-405 -581 0
-405 -582 0
-405 583 0
-406 -576 0
-406 577 0
-406 578 0
-406 -579 0
-406 580 0
-406 -581 0
-406 -582 0
-406 583 0
-407 576 0
-407 577 0
-407 578 0
-407 -579 0
-407 580 0
-407 -581 0
-407 -582 0
-407 583 0
-408 -576 0
-408 -577 0
-408 -578 0
-408 579 0
-408 580 0
-408 -581 0
-408 -582 0
-408 583 0
-409 576 0
-409 -577 0
-409 -578 0
-409 579 0
-409 580 0
-409 -581 0
-409 -582 0
-409 583 0
-410 -576 0
-410 577 0
-410 -578 0
-410 579 0
-410 580 0
-410 -581 0
-410 -582 0
-410 583 0
-411 576 0
-411 577 0
-411 -578 0
-411 579 0
-411 580 0
-411 -581 0
-411 -582 0
-411 583 0
-412 -576 0
-412 -577 0
-412 578 0
-412 579 0
-412 580 0
-412 -581 0
-412 -582 0
-412 583 0
-413 576 0
-413 -577 0
-413 578 0
-413 579 0
-413 580 0
-413 -581 0
-413 -582 0
-413 583 0
-414 -576 0
-414 577 0
-414 578 0
-414 579 0
-414 580 0
-414 -581 0
-414 -582 0
-414 583 0
-415 576 0
-415 577 0
-415 578 0
-415 579 0
-415 580 0
-415 -581 0
-415 -582 0
-415 583 0
-416 -576 0
-416 -577 0
-416 -578 0
-416 -579 0
-416 -580 0
-416 581 0
-416 -582 0
-416 583 0
-417 576 0
-417 -577 0
-417 -578 0
-417 -579 0
-417 -580 0
-417 581 0
-417 -582 0
-417 583 0
-418 -576 0
-418 577 0
-418 -578 0
-418 -579 0
-418 -580 0
-418 581 0
-418 -582 0
-418 583 0
-419 576 0
-419 577 0
-419 -578 0
-419 -579 0
-419 -580 0
-419 581 0
-419 -582 0
-419 583 0
-420 -576 0
-420 -577 0
-420 578 0
-420 -579 0
-420 -580 0
-420 581 0
-420 -582 0
-420 583 0
-421 576 0
-421 -577 0
-421 578 0
-421 -579 0
-421 -580 0
-421 581 0
-421 -582 0
-421 583 0
-422 -576 0
-422 577 0
-422 578 0
-422 -579 0
-422 -580 0
-422 581 0
-422 -582 0
-422 583 0
-423 576 0
-423 577 0
-423 578 0
-423 -579 0
-423 -580 0
-423 581 0
-423 -582 0
-423 583 0
-424 -576 0
-424 -577 0
-424 -578 0
-424 579 0
-424 -580 0
-424 581 0
-424 -582 0
-424 583 0
-425 576 0
-425 -577 0
-425 -578 0
-425 579 0
-425 -580 0
-425 581 0
-425 -582 0
-425 583 0
-426 -576 0
-426 577 0
-426 -578 0
-426 579 0
-426 -580 0
-426 581 0
-426 -582 0
-426 583 0
-427 576 0
-427 577 0
-427 -578 0
-427 579 0
-427 -580 0
-427 581 0
-427 -582 0
-427 583 0
-428 -576 0
-428 -577 0
-428 578 0
-428 579 0
-428 -580 0
-428 581 0
-428 -582 0
-428 583 0
-429 576 0
-429 -577 0
-429 578 0
-429 579 0
-429 -580 0
-429 581 0
-429 -582 0
-429 583 0
-430 -576 0
-430 577 0
-430 578 0
-430 579 0
-430 -580 0
-430 581 0
-430 -582 0
-430 583 0
-431 576 0
-431 577 0
-431 578 0
-431 579 0
-431 -580 0
-431 581 0
-431 -582 0
-431 583 0
-432 -576 0
-432 -577 0
-432 -578 0
-432 -579 0
-432 580 0
-432 581 0
-432 -582 0
-432 583 0
-433 576 0
-433 -577 0
-433 -578 0
-433 -579 0
-433 580 0
-433 581 0
-433 -582 0
-433 583 0
-434 -576 0
-434 577 0
-434 -578 0
-434 -579 0
-434 580 0
-434 581 0
-434 -582 0
-434 583 0
-435 576 0
-435 577 0
-435 -578 0
-435 -579 0
-435 580 0
-435 581 0
-435 -582 0
-435 583 0
-436 -576 0
-436 -577 0
-436 578 0
-436 -579 0
-436 580 0
-436 581 0
-436 -582 0
-436 583 0
-437 576 0
-437 -577 0
-437 578 0
-437 -579 0
-437 580 0
-437 581 0
-437 -582 0
-437 583 0
-438 -576 0
-438 577 0
-438 578 0
-438 -579 0
-438 580 0
-438 581 0
-438 -582 0
-438 583 0
-439 576 0
-439 577 0
-439 578 0
-439 -579 0
-439 580 0
-439 581 0
-439 -582 0
-439 583 0
-440 -576 0
-440 -577 0
-440 -578 0
-440 579 0
-440 580 0
-440 581 0
-440 -582 0
-440 583 0
-441 576 0
-441 -577 0
-441 -578 0
-441 579 0
-441 580 0
-441 581 0
-441 -582 0
-441 583 0
-442 -576 0
-442 577 0
-442 -578 0
-442 579 0
-442 580 0
-442 581 0
-442 -582 0
-442 583 0
-443 576 0
-443 577 0
-443 -578 0
-443 579 0
-443 580 0
-443 581 0
-443 -582 0
-443 583 0
-444 -576 0
-444 -577 0
-444 578 0
-444 579 0
-444 580 0
-444 581 0
-444 -582 0
-444 583 0
-445 576 0
-445 -577 0
-445 578 0
-445 579 0
-445 580 0
-445 581 0
-445 -582 0
-445 583 0
-446 -576 0
-446 577 0
-446 578 0
-446 579 0
-446 580 0
-446 581 0
-446 -582 0
-446 583 0
-447 576 0
-447 577 0
-447 578 0
-447 579 0
-447 580 0
-447 581 0
-447 -582 0
-447 583 0
-448 -576 0
-448 -577 0
-448 -578 0
-448 -579 0
-448 -580 0
-448 -581 0
-448 582 0
-448 583 0
-449 576 0
-449 -577 0
-449 -578 0
-449 -579 0
-449 -580 0
-449 -581 0
-449 582 0
-449 583 0
-450 -576 0
-450 577 0
-450 -578 0
-450 -579 0
-450 -580 0
-450 -581 0
-450 582 0
-450 583 0
-451 576 0
-451 577 0
-451 -578 0
-451 -579 0
-451 -580 0
-451 -581 0
-451 582 0
-451 583 0
-452 -576 0
-452 -577 0
-452 578 0
-452 -579 0
-452 -580 0
-452 -581 0
-452 582 0
-452 583 0
-453 576 0
-453 -577 0
-453 578 0
-453 -579 0
-453 -580 0
-453 -581 0
-453 582 0
-453 583 0
-454 -576 0
-454 577 0
-454 578 0
-454 -579 0
-454 -580 0
-454 -581 0
-454 582 0
-454 583 0
-455 576 0
-455 577 0
-455 578 0
-455 -579 0
-455 -580 0
-455 -581 0
-455 582 0
-455 583 0
-456 -576 0
-456 -577 0
-456 -578 0
-456 579 0
-456 -580 0
-456 -581 0
-456 582 0
-456 583 0
-457 576 0
-457 -577 0
-457 -578 0
-457 579 0
-457 -580 0
-457 -581 0
-457 582 0
-457 583 0
-458 -576 0
-458 577 0
-458 -578 0
-458 579 0
-458 -580 0
-458 -581 0
-458 582 0
-458 583 0
-459 576 0
-459 577 0
-459 -578 0
-459 579 0
-459 -580 0
-459 -581 0
-459 582 0
-459 583 0
-460 -576 0
-460 -577 0
-460 578 0
-460 579 0
-460 -580 0
-460 -581 0
-460 582 0
-460 583 0
-461 576 0
-461 -577 0
-461 578 0
-461 579 0
-461 -580 0
-461 -581 0
-461 582 0
-461 583 0
-462 -576 0
-462 577 0
-462 578 0
-462 579 0
-462 -580 0
-462 -581 0
-462 582 0
-462 583 0
-463 576 0
-463 577 0
-463 578 0
-463 579 0
-463 -580 0
-463 -581 0
-463 582 0
-463 583 0
-464 -576 0
-464 -577 0
-464 -578 0
-464 -579 0
-464 580 0
-464 -581 0
-464 582 0
-464 583 0
-465 576 0
-465 -577 0
-465 -578 0
-465 -579 0
-465 580 0
-465 -581 0
-465 582 0
-465 583 0
-466 -576 0
-466 577 0
-466 -578 0
-466 -579 0
-466 580 0
-466 -581 0
-466 582 0
-466 583 0
-467 576 0
-467 577 0
-467 -578 0
-467 -579 0
-467 580 0
-467 -581 0
-467 582 0
-467 583 0
-468 -576 0
-468 -577 0
-468 578 0
-468 -579 0
-468 580 0
-468 -581 0
-468 582 0
-468 583 0
-469 576 0
-469 -577 0
-469 578 0
-469 -579 0
-469 580 0
-469 -581 0
-469 582 0
-469 583 0
-470 -576 0
-470 577 0
-470 578 0
-470 -579 0
-470 580 0
-470 -581 0
-470 582 0
-470 583 0
-471 576 0
-471 577 0
-471 578 0
-471 -579 0
-471 580 0
-471 -581 0
-471 582 0
-471 583 0
-472 -576 0
-472 -577 0
-472 -578 0
-472 579 0
-472 580 0
-472 -581 0
-472 582 0
-472 583 0
-473 576 0
-473 -577 0
-473 -578 0
-473 579 0
-473 580 0
-473 -581 0
-473 582 0
-473 583 0
-474 -576 0
-474 577 0
-474 -578 0
-474 579 0
-474 580 0
-474 -581 0
-474 582 0
-474 583 0
-475 576 0
-475 577 0
-475 -578 0
-475 579 0
-475 580 0
-475 -581 0
-475 582 0
-475 583 0
-476 -576 0
-476 -577 0
-476 578 0
-476 579 0
-476 580 0
-476 -581 0
-476 582 0
-476 583 0
-477 576 0
-477 -577 0
-477 578 0
-477 579 0
-477 580 0
-477 -581 0
-477 582 0
-477 583 0
-478 -576 0
-478 577 0
-478 578 0
-478 579 0
-478 580 0
-478 -581 0
-478 582 0
-478 583 0
-479 576 0
-479 577 0
-479 578 0
-479 579 0
-479 580 0
-479 -581 0
-479 582 0
-479 583 0
-480 -576 0
-480 -577 0
-480 -578 0
-480 -579 0
-480 -580 0
-480 581 0
-480 582 0
-480 583 0
-481 576 0
-481 -577 0
-481 -578 0
-481 -579 0
-481 -580 0
-481 581 0
-481 582 0
-481 583 0
-482 -576 0
-482 577 0
-482 -578 0
-482 -579 0
-482 -580 0
-482 581 0
-482 582 0
-482 583 0
-483 576 0
-483 577 0
-483 -578 0
-483 -579 0
-483 -580 0
-483 581 0
-483 582 0
-483 583 0
-484 -576 0
-484 -577 0
-484 578 0
-484 -579 0
-484 -580 0
-484 581 0
-484 582 0
-484 583 0
-485 576 0
-485 -577 0
-485 578 0
-485 -579 0
-485 -580 0
-485 581 0
-485 582 0
-485 583 0
-486 -576 0
-486 577 0
-486 578 0
-486 -579 0
-486 -580 0
-486 581 0
-486 582 0
-486 583 0
-487 576 0
-487 577 0
-487 578 0
-487 -579 0
-487 -580 0
-487 581 0
-487 582 0
-487 583 0
-488 -576 0
-488 -577 0
-488 -578 0
-488 579 0
-488 -580 0
-488 581 0
-488 582 0
-488 583 0
-489 576 0
-489 -577 0
-489 -578 0
-489 579 0
-489 -580 0
-489 581 0
-489 582 0
-489 583 0
-490 -576 0
-490 577 0
-490 -578 0
-490 579 0
-490 -580 0
-490 581 0
-490 582 0
-490 583 0
-491 576 0
-491 577 0
-491 -578 0
-491 579 0
-491 -580 0
-491 581 0
-491 582 0
-491 583 0
-492 -576 0
-492 -577 0
-492 578 0
-492 579 0
-492 -580 0
-492 581 0
-492 582 0
-492 583 0
-493 576 0
-493 -577 0
-493 578 0
-493 579 0
-493 -580 0
-493 581 0
-493 582 0
-493 583 0
-494 -576 0
-494 577 0
-494 578 0
-494 579 0
-494 -580 0
-494 581 0
-494 582 0
-494 583 0
-495 576 0
-495 577 0
-495 578 0
-495 579 0
-495 -580 0
-495 581 0
-495 582 0
-495 583 0
-496 -576 0
-496 -577 0
-496 -578 0
-496 -579 0
-496 580 0
-496 581 0
-496 582 0
-496 583 0
-497 576 0
-497 -577 0
-497 -578 0
-497 -579 0
-497 580 0
-497 581 0
-497 582 0
-497 583 0
-498 -576 0
-498 577 0
-498 -578 0
-498 -579 0
-498 580 0
-498 581 0
-498 582 0
-498 583 0
-499 576 0
-499 577 0
-499 -578 0
-499 -579 0
-499 580 0
-499 581 0
-499 582 0
-499 583 0
-500 -576 0
-500 -577 0
-500 578 0
-500 -579 0
-500 580 0
-500 581 0
-500 582 0
-500 583 0
-501 576 0
-501 -577 0
-501 578 0
-501 -579 0
-501 580 0
-501 581 0
-501 582 0
-501 583 0
-502 -576 0
-502 577 0
-502 578 0
-502 -579 0
-502 580 0
-502 581 0
-502 582 0
-502 583 0
-503 576 0
-503 577 0
-503 578 0
-503 -579 0
-503 580 0
-503 581 0
-503 582 0
-503 583 0
-504 -576 0
-504 -577 0
-504 -578 0
-504 579 0
-504 580 0
-504 581 0
-504 582 0
-504 583 0
-505 576 0
-505 -577 0
-505 -578 0
-505 579 0
-505 580 0
-505 581 0
-505 582 0
-505 583 0
-506 -576 0
-506 577 0
-506 -578 0
-506 579 0
-506 580 0
-506 581 0
-506 582 0
-506 583 0
-507 576 0
-507 577 0
-507 -578 0
-507 579 0
-507 580 0
-507 581 0
-507 582 0
-507 583 0
-508 -576 0
-508 -577 0
-508 578 0
-508 579 0
-508 580 0
-508 581 0
-508 582 0
-508 583 0
-509 576 0
-509 -577 0
-509 578 0
-509 579 0
-509 580 0
-509 581 0
-509 582 0
-509 583 0
-510 -576 0
-510 577 0
-510 578 0
-510 579 0
-510 580 0
-510 581 0
-510 582 0
-510 583 0
-511 576 0
-511 577 0
-511 578 0
-511 579 0
-511 580 0
-511 581 0
-511 582 0
-511 583 0
