p cnf 2806 9171
-512 1 3 0
512 -1 0
512 -3 0
-513 512 5 0
513 -512 0
513 -5 0
-514 513 7 0
514 -513 0
514 -7 0
-515 514 9 0
515 -514 0
515 -9 0
-516 515 11 0
516 -515 0
516 -11 0
-517 516 13 0
517 -516 0
517 -13 0
-518 517 15 0
518 -517 0
518 -15 0
-519 518 17 0
519 -518 0
519 -17 0
-520 519 19 0
520 -519 0
520 -19 0
-521 520 21 0
521 -520 0
521 -21 0
-522 521 23 0
522 -521 0
522 -23 0
-523 522 25 0
523 -522 0
523 -25 0
-524 523 27 0
524 -523 0
524 -27 0
-525 524 29 0
525 -524 0
525 -29 0
-526 525 31 0
526 -525 0
526 -31 0
-527 526 33 0
527 -526 0
527 -33 0
-528 527 35 0
528 -527 0
528 -35 0
-529 528 37 0
529 -528 0
529 -37 0
-530 529 39 0
530 -529 0
530 -39 0
-531 530 41 0
531 -530 0
531 -41 0
-532 531 43 0
532 -531 0
532 -43 0
-533 532 45 0
533 -532 0
533 -45 0
-534 533 47 0
534 -533 0
534 -47 0
-535 534 49 0
535 -534 0
535 -49 0
-536 535 51 0
536 -535 0
536 -51 0
-537 536 53 0
537 -536 0
537 -53 0
-538 537 55 0
538 -537 0
538 -55 0
-539 538 57 0
539 -538 0
539 -57 0
-540 539 59 0
540 -539 0
540 -59 0
-541 540 61 0
541 -540 0
541 -61 0
-542 541 63 0
542 -541 0
542 -63 0
-543 542 65 0
543 -542 0
543 -65 0
-544 543 67 0
544 -543 0
544 -67 0
-545 544 69 0
545 -544 0
545 -69 0
-546 545 71 0
546 -545 0
546 -71 0
-547 546 73 0
547 -546 0
547 -73 0
-548 547 75 0
548 -547 0
548 -75 0
-549 548 77 0
549 -548 0
549 -77 0
-550 549 79 0
550 -549 0
550 -79 0
-551 550 81 0
551 -550 0
551 -81 0
-552 551 83 0
552 -551 0
552 -83 0
-553 552 85 0
553 -552 0
553 -85 0
-554 553 87 0
554 -553 0
554 -87 0
-555 554 89 0
555 -554 0
555 -89 0
-556 555 91 0
556 -555 0
556 -91 0
-557 556 93 0
557 -556 0
557 -93 0
-558 557 95 0
558 -557 0
558 -95 0
-559 558 97 0
559 -558 0
559 -97 0
-560 559 99 0
560 -559 0
560 -99 0
-561 560 101 0
561 -560 0
561 -101 0
-562 561 103 0
562 -561 0
562 -103 0
-563 562 105 0
563 -562 0
563 -105 0
-564 563 107 0
564 -563 0
564 -107 0
-565 564 109 0
565 -564 0
565 -109 0
-566 565 111 0
566 -565 0
566 -111 0
-567 566 113 0
567 -566 0
567 -113 0
-568 567 115 0
568 -567 0
568 -115 0
-569 568 117 0
569 -568 0
569 -117 0
-570 569 119 0
570 -569 0
570 -119 0
-571 570 121 0
571 -570 0
571 -121 0
-572 571 123 0
572 -571 0
572 -123 0
-573 572 125 0
573 -572 0
573 -125 0
-574 573 127 0
574 -573 0
574 -127 0
-575 574 129 0
575 -574 0
575 -129 0
-576 575 131 0
576 -575 0
576 -131 0
-577 576 133 0
577 -576 0
577 -133 0
-578 577 135 0
578 -577 0
578 -135 0
-579 578 137 0
579 -578 0
579 -137 0
-580 579 139 0
580 -579 0
580 -139 0
-581 580 141 0
581 -580 0
581 -141 0
-582 581 143 0
582 -581 0
582 -143 0
-583 582 145 0
583 -582 0
583 -145 0
-584 583 147 0
584 -583 0
584 -147 0
-585 584 149 0
585 -584 0
585 -149 0
-586 585 151 0
586 -585 0
586 -151 0
-587 586 153 0
587 -586 0
587 -153 0
-588 587 155 0
588 -587 0
588 -155 0
-589 588 157 0
589 -588 0
589 -157 0
-590 589 159 0
590 -589 0
590 -159 0
-591 590 161 0
591 -590 0
591 -161 0
-592 591 163 0
592 -591 0
592 -163 0
-593 592 165 0
593 -592 0
593 -165 0
-594 593 167 0
594 -593 0
594 -167 0
-595 594 169 0
595 -594 0
595 -169 0
-596 595 171 0
596 -595 0
596 -171 0
-597 596 173 0
597 -596 0
597 -173 0
-598 597 175 0
598 -597 0
598 -175 0
-599 598 177 0
599 -598 0
599 -177 0
-600 599 179 0
600 -599 0
600 -179 0
-601 600 181 0
601 -600 0
601 -181 0
-602 601 183 0
602 -601 0
602 -183 0
-603 602 185 0
603 -602 0
603 -185 0
-604 603 187 0
604 -603 0
604 -187 0
-605 604 189 0
605 -604 0
605 -189 0
-606 605 191 0
606 -605 0
606 -191 0
-607 606 193 0
607 -606 0
607 -193 0
-608 607 195 0
608 -607 0
608 -195 0
-609 608 197 0
609 -608 0
609 -197 0
-610 609 199 0
610 -609 0
610 -199 0
-611 610 201 0
611 -610 0
611 -201 0
-612 611 203 0
612 -611 0
612 -203 0
-613 612 205 0
613 -612 0
613 -205 0
-614 613 207 0
614 -613 0
614 -207 0
-615 614 209 0
615 -614 0
615 -209 0
-616 615 211 0
616 -615 0
616 -211 0
-617 616 213 0
617 -616 0
617 -213 0
-618 617 215 0
618 -617 0
618 -215 0
-619 618 217 0
619 -618 0
619 -217 0
-620 619 219 0
620 -619 0
620 -219 0
-621 620 221 0
621 -620 0
621 -221 0
-622 621 223 0
622 -621 0
622 -223 0
-623 622 225 0
623 -622 0
623 -225 0
-624 623 227 0
624 -623 0
624 -227 0
-625 624 229 0
625 -624 0
625 -229 0
-626 625 231 0
626 -625 0
626 -231 0
-627 626 233 0
627 -626 0
627 -233 0
-628 627 235 0
628 -627 0
628 -235 0
-629 628 237 0
629 -628 0
629 -237 0
-630 629 239 0
630 -629 0
630 -239 0
-631 630 241 0
631 -630 0
631 -241 0
-632 631 243 0
632 -631 0
632 -243 0
-633 632 245 0
633 -632 0
633 -245 0
-634 633 247 0
634 -633 0
634 -247 0
-635 634 249 0
635 -634 0
635 -249 0
-636 635 251 0
636 -635 0
636 -251 0
-637 636 253 0
637 -636 0
637 -253 0
-638 637 255 0
638 -637 0
638 -255 0
-639 638 257 0
639 -638 0
639 -257 0
-640 639 259 0
640 -639 0
640 -259 0
-641 640 261 0
641 -640 0
641 -261 0
-642 641 263 0
642 -641 0
642 -263 0
-643 642 265 0
643 -642 0
643 -265 0
-644 643 267 0
644 -643 0
644 -267 0
-645 644 269 0
645 -644 0
645 -269 0
-646 645 271 0
646 -645 0
646 -271 0
-647 646 273 0
647 -646 0
647 -273 0
-648 647 275 0
648 -647 0
648 -275 0
-649 648 277 0
649 -648 0
649 -277 0
-650 649 279 0
650 -649 0
650 -279 0
-651 650 281 0
651 -650 0
651 -281 0
-652 651 283 0
652 -651 0
652 -283 0
-653 652 285 0
653 -652 0
653 -285 0
-654 653 287 0
654 -653 0
654 -287 0
-655 654 289 0
655 -654 0
655 -289 0
-656 655 291 0
656 -655 0
656 -291 0
-657 656 293 0
657 -656 0
657 -293 0
-658 657 295 0
658 -657 0
658 -295 0
-659 658 297 0
659 -658 0
659 -297 0
-660 659 299 0
660 -659 0
660 -299 0
-661 660 301 0
661 -660 0
661 -301 0
-662 661 303 0
662 -661 0
662 -303 0
-663 662 305 0
663 -662 0
663 -305 0
-664 663 307 0
664 -663 0
664 -307 0
-665 664 309 0
665 -664 0
665 -309 0
-666 665 311 0
666 -665 0
666 -311 0
-667 666 313 0
667 -666 0
667 -313 0
-668 667 315 0
668 -667 0
668 -315 0
-669 668 317 0
669 -668 0
669 -317 0
-670 669 319 0
670 -669 0
670 -319 0
-671 670 321 0
671 -670 0
671 -321 0
-672 671 323 0
672 -671 0
672 -323 0
-673 672 325 0
673 -672 0
673 -325 0
-674 673 327 0
674 -673 0
674 -327 0
-675 674 329 0
675 -674 0
675 -329 0
-676 675 331 0
676 -675 0
676 -331 0
-677 676 333 0
677 -676 0
677 -333 0
-678 677 335 0
678 -677 0
678 -335 0
-679 678 337 0
679 -678 0
679 -337 0
-680 679 339 0
680 -679 0
680 -339 0
-681 680 341 0
681 -680 0
681 -341 0
-682 681 343 0
682 -681 0
682 -343 0
-683 682 345 0
683 -682 0
683 -345 0
-684 683 347 0
684 -683 0
684 -347 0
-685 684 349 0
685 -684 0
685 -349 0
-686 685 351 0
686 -685 0
686 -351 0
-687 686 353 0
687 -686 0
687 -353 0
-688 687 355 0
688 -687 0
688 -355 0
-689 688 357 0
689 -688 0
689 -357 0
-690 689 359 0
690 -689 0
690 -359 0
-691 690 361 0
691 -690 0
691 -361 0
-692 691 363 0
692 -691 0
692 -363 0
-693 692 365 0
693 -692 0
693 -365 0
-694 693 367 0
694 -693 0
694 -367 0
-695 694 369 0
695 -694 0
695 -369 0
-696 695 371 0
696 -695 0
696 -371 0
-697 696 373 0
697 -696 0
697 -373 0
-698 697 375 0
698 -697 0
698 -375 0
-699 698 377 0
699 -698 0
699 -377 0
-700 699 379 0
700 -699 0
700 -379 0
-701 700 381 0
701 -700 0
701 -381 0
-702 701 383 0
702 -701 0
702 -383 0
-703 702 385 0
703 -702 0
703 -385 0
-704 703 387 0
704 -703 0
704 -387 0
-705 704 389 0
705 -704 0
705 -389 0
-706 705 391 0
706 -705 0
706 -391 0
-707 706 393 0
707 -706 0
707 -393 0
-708 707 395 0
708 -707 0
708 -395 0
-709 708 397 0
709 -708 0
709 -397 0
-710 709 399 0
710 -709 0
710 -399 0
-711 710 401 0
711 -710 0
711 -401 0
-712 711 403 0
712 -711 0
712 -403 0
-713 712 405 0
713 -712 0
713 -405 0
-714 713 407 0
714 -713 0
714 -407 0
-715 714 409 0
715 -714 0
715 -409 0
-716 715 411 0
716 -715 0
716 -411 0
-717 716 413 0
717 -716 0
717 -413 0
-718 717 415 0
718 -717 0
718 -415 0
-719 718 417 0
719 -718 0
719 -417 0
-720 719 419 0
720 -719 0
720 -419 0
-721 720 421 0
721 -720 0
721 -421 0
-722 721 423 0
722 -721 0
722 -423 0
-723 722 425 0
723 -722 0
723 -425 0
-724 723 427 0
724 -723 0
724 -427 0
-725 724 429 0
725 -724 0
725 -429 0
-726 725 431 0
726 -725 0
726 -431 0
-727 726 433 0
727 -726 0
727 -433 0
-728 727 435 0
728 -727 0
728 -435 0
-729 728 437 0
729 -728 0
729 -437 0
-730 729 439 0
730 -729 0
730 -439 0
-731 730 441 0
731 -730 0
731 -441 0
-732 731 443 0
732 -731 0
732 -443 0
-733 732 445 0
733 -732 0
733 -445 0
-734 733 447 0
734 -733 0
734 -447 0
-735 734 449 0
735 -734 0
735 -449 0
-736 735 451 0
736 -735 0
736 -451 0
-737 736 453 0
737 -736 0
737 -453 0
-738 737 455 0
738 -737 0
738 -455 0
-739 738 457 0
739 -738 0
739 -457 0
-740 739 459 0
740 -739 0
740 -459 0
-741 740 461 0
741 -740 0
741 -461 0
-742 741 463 0
742 -741 0
742 -463 0
-743 742 465 0
743 -742 0
743 -465 0
-744 743 467 0
744 -743 0
744 -467 0
-745 744 469 0
745 -744 0
745 -469 0
-746 745 471 0
746 -745 0
746 -471 0
-747 746 473 0
747 -746 0
747 -473 0
-748 747 475 0
748 -747 0
748 -475 0
-749 748 477 0
749 -748 0
749 -477 0
-750 749 479 0
750 -749 0
750 -479 0
-751 750 481 0
751 -750 0
751 -481 0
-752 751 483 0
752 -751 0
752 -483 0
-753 752 485 0
753 -752 0
753 -485 0
-754 753 487 0
754 -753 0
754 -487 0
-755 754 489 0
755 -754 0
755 -489 0
-756 755 491 0
756 -755 0
756 -491 0
-757 756 493 0
757 -756 0
757 -493 0
-758 757 495 0
758 -757 0
758 -495 0
-759 758 497 0
759 -758 0
759 -497 0
-760 759 499 0
760 -759 0
760 -499 0
-761 760 501 0
761 -760 0
761 -501 0
-762 761 503 0
762 -761 0
762 -503 0
-763 762 505 0
763 -762 0
763 -505 0
-764 763 507 0
764 -763 0
764 -507 0
-765 764 509 0
765 -764 0
765 -509 0
765 511 0
-1 -3 0
-512 -5 0
-513 -7 0
-514 -9 0
-515 -11 0
-516 -13 0
-517 -15 0
-518 -17 0
-519 -19 0
-520 -21 0
-521 -23 0
-522 -25 0
-523 -27 0
-524 -29 0
-525 -31 0
-526 -33 0
-527 -35 0
-528 -37 0
-529 -39 0
-530 -41 0
-531 -43 0
-532 -45 0
-533 -47 0
-534 -49 0
-535 -51 0
-536 -53 0
-537 -55 0
-538 -57 0
-539 -59 0
-540 -61 0
-541 -63 0
-542 -65 0
-543 -67 0
-544 -69 0
-545 -71 0
-546 -73 0
-547 -75 0
-548 -77 0
-549 -79 0
-550 -81 0
-551 -83 0
-552 -85 0
-553 -87 0
-554 -89 0
-555 -91 0
-556 -93 0
-557 -95 0
-558 -97 0
-559 -99 0
-560 -101 0
-561 -103 0
-562 -105 0
-563 -107 0
-564 -109 0
-565 -111 0
-566 -113 0
-567 -115 0
-568 -117 0
-569 -119 0
-570 -121 0
-571 -123 0
-572 -125 0
-573 -127 0
-574 -129 0
-575 -131 0
-576 -133 0
-577 -135 0
-578 -137 0
-579 -139 0
-580 -141 0
-581 -143 0
-582 -145 0
-583 -147 0
-584 -149 0
-585 -151 0
-586 -153 0
-587 -155 0
-588 -157 0
-589 -159 0
-590 -161 0
-591 -163 0
-592 -165 0
-593 -167 0
-594 -169 0
-595 -171 0
-596 -173 0
-597 -175 0
-598 -177 0
-599 -179 0
-600 -181 0
-601 -183 0
-602 -185 0
-603 -187 0
-604 -189 0
-605 -191 0
-606 -193 0
-607 -195 0
-608 -197 0
-609 -199 0
-610 -201 0
-611 -203 0
-612 -205 0
-613 -207 0
-614 -209 0
-615 -211 0
-616 -213 0
-617 -215 0
-618 -217 0
-619 -219 0
-620 -221 0
-621 -223 0
-622 -225 0
-623 -227 0
-624 -229 0
-625 -231 0
-626 -233 0
-627 -235 0
-628 -237 0
-629 -239 0
-630 -241 0
-631 -243 0
-632 -245 0
-633 -247 0
-634 -249 0
-635 -251 0
-636 -253 0
-637 -255 0
-638 -257 0
-639 -259 0
-640 -261 0
-641 -263 0
-642 -265 0
-643 -267 0
-644 -269 0
-645 -271 0
-646 -273 0
-647 -275 0
-648 -277 0
-649 -279 0
-650 -281 0
-651 -283 0
-652 -285 0
-653 -287 0
-654 -289 0
-655 -291 0
-656 -293 0
-657 -295 0
-658 -297 0
-659 -299 0
-660 -301 0
-661 -303 0
-662 -305 0
-663 -307 0
-664 -309 0
-665 -311 0
-666 -313 0
-667 -315 0
-668 -317 0
-669 -319 0
-670 -321 0
-671 -323 0
-672 -325 0
-673 -327 0
-674 -329 0
-675 -331 0
-676 -333 0
-677 -335 0
-678 -337 0
-679 -339 0
-680 -341 0
-681 -343 0
-682 -345 0
-683 -347 0
-684 -349 0
-685 -351 0
-686 -353 0
-687 -355 0
-688 -357 0
-689 -359 0
-690 -361 0
-691 -363 0
-692 -365 0
-693 -367 0
-694 -369 0
-695 -371 0
-696 -373 0
-697 -375 0
-698 -377 0
-699 -379 0
-700 -381 0
-701 -383 0
-702 -385 0
-703 -387 0
-704 -389 0
-705 -391 0
-706 -393 0
-707 -395 0
-708 -397 0
-709 -399 0
-710 -401 0
-711 -403 0
-712 -405 0
-713 -407 0
-714 -409 0
-715 -411 0
-716 -413 0
-717 -415 0
-718 -417 0
-719 -419 0
-720 -421 0
-721 -423 0
-722 -425 0
-723 -427 0
-724 -429 0
-725 -431 0
-726 -433 0
-727 -435 0
-728 -437 0
-729 -439 0
-730 -441 0
-731 -443 0
-732 -445 0
-733 -447 0
-734 -449 0
-735 -451 0
-736 -453 0
-737 -455 0
-738 -457 0
-739 -459 0
-740 -461 0
-741 -463 0
-742 -465 0
-743 -467 0
-744 -469 0
-745 -471 0
-746 -473 0
-747 -475 0
-748 -477 0
-749 -479 0
-750 -481 0
-751 -483 0
-752 -485 0
-753 -487 0
-754 -489 0
-755 -491 0
-756 -493 0
-757 -495 0
-758 -497 0
-759 -499 0
-760 -501 0
-761 -503 0
-762 -505 0
-763 -507 0
-764 -509 0
-765 -511 0
766 0
-767 2 3 0
767 -2 0
767 -3 0
-768 767 6 0
768 -767 0
768 -6 0
-769 768 7 0
769 -768 0
769 -7 0
-770 769 10 0
770 -769 0
770 -10 0
-771 770 11 0
771 -770 0
771 -11 0
-772 771 14 0
772 -771 0
772 -14 0
-773 772 15 0
773 -772 0
773 -15 0
-774 773 18 0
774 -773 0
774 -18 0
-775 774 19 0
775 -774 0
775 -19 0
-776 775 22 0
776 -775 0
776 -22 0
-777 776 23 0
777 -776 0
777 -23 0
-778 777 26 0
778 -777 0
778 -26 0
-779 778 27 0
779 -778 0
779 -27 0
-780 779 30 0
780 -779 0
780 -30 0
-781 780 31 0
781 -780 0
781 -31 0
-782 781 34 0
782 -781 0
782 -34 0
-783 782 35 0
783 -782 0
783 -35 0
-784 783 38 0
784 -783 0
784 -38 0
-785 784 39 0
785 -784 0
785 -39 0
-786 785 42 0
786 -785 0
786 -42 0
-787 786 43 0
787 -786 0
787 -43 0
-788 787 46 0
788 -787 0
788 -46 0
-789 788 47 0
789 -788 0
789 -47 0
-790 789 50 0
790 -789 0
790 -50 0
-791 790 51 0
791 -790 0
791 -51 0
-792 791 54 0
792 -791 0
792 -54 0
-793 792 55 0
793 -792 0
793 -55 0
-794 793 58 0
794 -793 0
794 -58 0
-795 794 59 0
795 -794 0
795 -59 0
-796 795 62 0
796 -795 0
796 -62 0
-797 796 63 0
797 -796 0
797 -63 0
-798 797 66 0
798 -797 0
798 -66 0
-799 798 67 0
799 -798 0
799 -67 0
-800 799 70 0
800 -799 0
800 -70 0
-801 800 71 0
801 -800 0
801 -71 0
-802 801 74 0
802 -801 0
802 -74 0
-803 802 75 0
803 -802 0
803 -75 0
-804 803 78 0
804 -803 0
804 -78 0
-805 804 79 0
805 -804 0
805 -79 0
-806 805 82 0
806 -805 0
806 -82 0
-807 806 83 0
807 -806 0
807 -83 0
-808 807 86 0
808 -807 0
808 -86 0
-809 808 87 0
809 -808 0
809 -87 0
-810 809 90 0
810 -809 0
810 -90 0
-811 810 91 0
811 -810 0
811 -91 0
-812 811 94 0
812 -811 0
812 -94 0
-813 812 95 0
813 -812 0
813 -95 0
-814 813 98 0
814 -813 0
814 -98 0
-815 814 99 0
815 -814 0
815 -99 0
-816 815 102 0
816 -815 0
816 -102 0
-817 816 103 0
817 -816 0
817 -103 0
-818 817 106 0
818 -817 0
818 -106 0
-819 818 107 0
819 -818 0
819 -107 0
-820 819 110 0
820 -819 0
820 -110 0
-821 820 111 0
821 -820 0
821 -111 0
-822 821 114 0
822 -821 0
822 -114 0
-823 822 115 0
823 -822 0
823 -115 0
-824 823 118 0
824 -823 0
824 -118 0
-825 824 119 0
825 -824 0
825 -119 0
-826 825 122 0
826 -825 0
826 -122 0
-827 826 123 0
827 -826 0
827 -123 0
-828 827 126 0
828 -827 0
828 -126 0
-829 828 127 0
829 -828 0
829 -127 0
-830 829 130 0
830 -829 0
830 -130 0
-831 830 131 0
831 -830 0
831 -131 0
-832 831 134 0
832 -831 0
832 -134 0
-833 832 135 0
833 -832 0
833 -135 0
-834 833 138 0
834 -833 0
834 -138 0
-835 834 139 0
835 -834 0
835 -139 0
-836 835 142 0
836 -835 0
836 -142 0
-837 836 143 0
837 -836 0
837 -143 0
-838 837 146 0
838 -837 0
838 -146 0
-839 838 147 0
839 -838 0
839 -147 0
-840 839 150 0
840 -839 0
840 -150 0
-841 840 151 0
841 -840 0
841 -151 0
-842 841 154 0
842 -841 0
842 -154 0
-843 842 155 0
843 -842 0
843 -155 0
-844 843 158 0
844 -843 0
844 -158 0
-845 844 159 0
845 -844 0
845 -159 0
-846 845 162 0
846 -845 0
846 -162 0
-847 846 163 0
847 -846 0
847 -163 0
-848 847 166 0
848 -847 0
848 -166 0
-849 848 167 0
849 -848 0
849 -167 0
-850 849 170 0
850 -849 0
850 -170 0
-851 850 171 0
851 -850 0
851 -171 0
-852 851 174 0
852 -851 0
852 -174 0
-853 852 175 0
853 -852 0
853 -175 0
-854 853 178 0
854 -853 0
854 -178 0
-855 854 179 0
855 -854 0
855 -179 0
-856 855 182 0
856 -855 0
856 -182 0
-857 856 183 0
857 -856 0
857 -183 0
-858 857 186 0
858 -857 0
858 -186 0
-859 858 187 0
859 -858 0
859 -187 0
-860 859 190 0
860 -859 0
860 -190 0
-861 860 191 0
861 -860 0
861 -191 0
-862 861 194 0
862 -861 0
862 -194 0
-863 862 195 0
863 -862 0
863 -195 0
-864 863 198 0
864 -863 0
864 -198 0
-865 864 199 0
865 -864 0
865 -199 0
-866 865 202 0
866 -865 0
866 -202 0
-867 866 203 0
867 -866 0
867 -203 0
-868 867 206 0
868 -867 0
868 -206 0
-869 868 207 0
869 -868 0
869 -207 0
-870 869 210 0
870 -869 0
870 -210 0
-871 870 211 0
871 -870 0
871 -211 0
-872 871 214 0
872 -871 0
872 -214 0
-873 872 215 0
873 -872 0
873 -215 0
-874 873 218 0
874 -873 0
874 -218 0
-875 874 219 0
875 -874 0
875 -219 0
-876 875 222 0
876 -875 0
876 -222 0
-877 876 223 0
877 -876 0
877 -223 0
-878 877 226 0
878 -877 0
878 -226 0
-879 878 227 0
879 -878 0
879 -227 0
-880 879 230 0
880 -879 0
880 -230 0
-881 880 231 0
881 -880 0
881 -231 0
-882 881 234 0
882 -881 0
882 -234 0
-883 882 235 0
883 -882 0
883 -235 0
-884 883 238 0
884 -883 0
884 -238 0
-885 884 239 0
885 -884 0
885 -239 0
-886 885 242 0
886 -885 0
886 -242 0
-887 886 243 0
887 -886 0
887 -243 0
-888 887 246 0
888 -887 0
888 -246 0
-889 888 247 0
889 -888 0
889 -247 0
-890 889 250 0
890 -889 0
890 -250 0
-891 890 251 0
891 -890 0
891 -251 0
-892 891 254 0
892 -891 0
892 -254 0
-893 892 255 0
893 -892 0
893 -255 0
-894 893 258 0
894 -893 0
894 -258 0
-895 894 259 0
895 -894 0
895 -259 0
-896 895 262 0
896 -895 0
896 -262 0
-897 896 263 0
897 -896 0
897 -263 0
-898 897 266 0
898 -897 0
898 -266 0
-899 898 267 0
899 -898 0
899 -267 0
-900 899 270 0
900 -899 0
900 -270 0
-901 900 271 0
901 -900 0
901 -271 0
-902 901 274 0
902 -901 0
902 -274 0
-903 902 275 0
903 -902 0
903 -275 0
-904 903 278 0
904 -903 0
904 -278 0
-905 904 279 0
905 -904 0
905 -279 0
-906 905 282 0
906 -905 0
906 -282 0
-907 906 283 0
907 -906 0
907 -283 0
-908 907 286 0
908 -907 0
908 -286 0
-909 908 287 0
909 -908 0
909 -287 0
-910 909 290 0
910 -909 0
910 -290 0
-911 910 291 0
911 -910 0
911 -291 0
-912 911 294 0
912 -911 0
912 -294 0
-913 912 295 0
913 -912 0
913 -295 0
-914 913 298 0
914 -913 0
914 -298 0
-915 914 299 0
915 -914 0
915 -299 0
-916 915 302 0
916 -915 0
916 -302 0
-917 916 303 0
917 -916 0
917 -303 0
-918 917 306 0
918 -917 0
918 -306 0
-919 918 307 0
919 -918 0
919 -307 0
-920 919 310 0
920 -919 0
920 -310 0
-921 920 311 0
921 -920 0
921 -311 0
-922 921 314 0
922 -921 0
922 -314 0
-923 922 315 0
923 -922 0
923 -315 0
-924 923 318 0
924 -923 0
924 -318 0
-925 924 319 0
925 -924 0
925 -319 0
-926 925 322 0
926 -925 0
926 -322 0
-927 926 323 0
927 -926 0
927 -323 0
-928 927 326 0
928 -927 0
928 -326 0
-929 928 327 0
929 -928 0
929 -327 0
-930 929 330 0
930 -929 0
930 -330 0
-931 930 331 0
931 -930 0
931 -331 0
-932 931 334 0
932 -931 0
932 -334 0
-933 932 335 0
933 -932 0
933 -335 0
-934 933 338 0
934 -933 0
934 -338 0
-935 934 339 0
935 -934 0
935 -339 0
-936 935 342 0
936 -935 0
936 -342 0
-937 936 343 0
937 -936 0
937 -343 0
-938 937 346 0
938 -937 0
938 -346 0
-939 938 347 0
939 -938 0
939 -347 0
-940 939 350 0
940 -939 0
940 -350 0
-941 940 351 0
941 -940 0
941 -351 0
-942 941 354 0
942 -941 0
942 -354 0
-943 942 355 0
943 -942 0
943 -355 0
-944 943 358 0
944 -943 0
944 -358 0
-945 944 359 0
945 -944 0
945 -359 0
-946 945 362 0
946 -945 0
946 -362 0
-947 946 363 0
947 -946 0
947 -363 0
-948 947 366 0
948 -947 0
948 -366 0
-949 948 367 0
949 -948 0
949 -367 0
-950 949 370 0
950 -949 0
950 -370 0
-951 950 371 0
951 -950 0
951 -371 0
-952 951 374 0
952 -951 0
952 -374 0
-953 952 375 0
953 -952 0
953 -375 0
-954 953 378 0
954 -953 0
954 -378 0
-955 954 379 0
955 -954 0
955 -379 0
-956 955 382 0
956 -955 0
956 -382 0
-957 956 383 0
957 -956 0
957 -383 0
-958 957 386 0
958 -957 0
958 -386 0
-959 958 387 0
959 -958 0
959 -387 0
-960 959 390 0
960 -959 0
960 -390 0
-961 960 391 0
961 -960 0
961 -391 0
-962 961 394 0
962 -961 0
962 -394 0
-963 962 395 0
963 -962 0
963 -395 0
-964 963 398 0
964 -963 0
964 -398 0
-965 964 399 0
965 -964 0
965 -399 0
-966 965 402 0
966 -965 0
966 -402 0
-967 966 403 0
967 -966 0
967 -403 0
-968 967 406 0
968 -967 0
968 -406 0
-969 968 407 0
969 -968 0
969 -407 0
-970 969 410 0
970 -969 0
970 -410 0
-971 970 411 0
971 -970 0
971 -411 0
-972 971 414 0
972 -971 0
972 -414 0
-973 972 415 0
973 -972 0
973 -415 0
-974 973 418 0
974 -973 0
974 -418 0
-975 974 419 0
975 -974 0
975 -419 0
-976 975 422 0
976 -975 0
976 -422 0
-977 976 423 0
977 -976 0
977 -423 0
-978 977 426 0
978 -977 0
978 -426 0
-979 978 427 0
979 -978 0
979 -427 0
-980 979 430 0
980 -979 0
980 -430 0
-981 980 431 0
981 -980 0
981 -431 0
-982 981 434 0
982 -981 0
982 -434 0
-983 982 435 0
983 -982 0
983 -435 0
-984 983 438 0
984 -983 0
984 -438 0
-985 984 439 0
985 -984 0
985 -439 0
-986 985 442 0
986 -985 0
986 -442 0
-987 986 443 0
987 -986 0
987 -443 0
-988 987 446 0
988 -987 0
988 -446 0
-989 988 447 0
989 -988 0
989 -447 0
-990 989 450 0
990 -989 0
990 -450 0
-991 990 451 0
991 -990 0
991 -451 0
-992 991 454 0
992 -991 0
992 -454 0
-993 992 455 0
993 -992 0
993 -455 0
-994 993 458 0
994 -993 0
994 -458 0
-995 994 459 0
995 -994 0
995 -459 0
-996 995 462 0
996 -995 0
996 -462 0
-997 996 463 0
997 -996 0
997 -463 0
-998 997 466 0
998 -997 0
998 -466 0
-999 998 467 0
999 -998 0
999 -467 0
-1000 999 470 0
1000 -999 0
1000 -470 0
-1001 1000 471 0
1001 -1000 0
1001 -471 0
-1002 1001 474 0
1002 -1001 0
1002 -474 0
-1003 1002 475 0
1003 -1002 0
1003 -475 0
-1004 1003 478 0
1004 -1003 0
1004 -478 0
-1005 1004 479 0
1005 -1004 0
1005 -479 0
-1006 1005 482 0
1006 -1005 0
1006 -482 0
-1007 1006 483 0
1007 -1006 0
1007 -483 0
-1008 1007 486 0
1008 -1007 0
1008 -486 0
-1009 1008 487 0
1009 -1008 0
1009 -487 0
-1010 1009 490 0
1010 -1009 0
1010 -490 0
-1011 1010 491 0
1011 -1010 0
1011 -491 0
-1012 1011 494 0
1012 -1011 0
1012 -494 0
-1013 1012 495 0
1013 -1012 0
1013 -495 0
-1014 1013 498 0
1014 -1013 0
1014 -498 0
-1015 1014 499 0
1015 -1014 0
1015 -499 0
-1016 1015 502 0
1016 -1015 0
1016 -502 0
-1017 1016 503 0
1017 -1016 0
1017 -503 0
-1018 1017 506 0
1018 -1017 0
1018 -506 0
-1019 1018 507 0
1019 -1018 0
1019 -507 0
-1020 1019 510 0
1020 -1019 0
1020 -510 0
1020 511 0
-2 -3 0
-767 -6 0
-768 -7 0
-769 -10 0
-770 -11 0
-771 -14 0
-772 -15 0
-773 -18 0
-774 -19 0
-775 -22 0
-776 -23 0
-777 -26 0
-778 -27 0
-779 -30 0
-780 -31 0
-781 -34 0
-782 -35 0
-783 -38 0
-784 -39 0
-785 -42 0
-786 -43 0
-787 -46 0
-788 -47 0
-789 -50 0
-790 -51 0
-791 -54 0
-792 -55 0
-793 -58 0
-794 -59 0
-795 -62 0
-796 -63 0
-797 -66 0
-798 -67 0
-799 -70 0
-800 -71 0
-801 -74 0
-802 -75 0
-803 -78 0
-804 -79 0
-805 -82 0
-806 -83 0
-807 -86 0
-808 -87 0
-809 -90 0
-810 -91 0
-811 -94 0
-812 -95 0
-813 -98 0
-814 -99 0
-815 -102 0
-816 -103 0
-817 -106 0
-818 -107 0
-819 -110 0
-820 -111 0
-821 -114 0
-822 -115 0
-823 -118 0
-824 -119 0
-825 -122 0
-826 -123 0
-827 -126 0
-828 -127 0
-829 -130 0
-830 -131 0
-831 -134 0
-832 -135 0
-833 -138 0
-834 -139 0
-835 -142 0
-836 -143 0
-837 -146 0
-838 -147 0
-839 -150 0
-840 -151 0
-841 -154 0
-842 -155 0
-843 -158 0
-844 -159 0
-845 -162 0
-846 -163 0
-847 -166 0
-848 -167 0
-849 -170 0
-850 -171 0
-851 -174 0
-852 -175 0
-853 -178 0
-854 -179 0
-855 -182 0
-856 -183 0
-857 -186 0
-858 -187 0
-859 -190 0
-860 -191 0
-861 -194 0
-862 -195 0
-863 -198 0
-864 -199 0
-865 -202 0
-866 -203 0
-867 -206 0
-868 -207 0
-869 -210 0
-870 -211 0
-871 -214 0
-872 -215 0
-873 -218 0
-874 -219 0
-875 -222 0
-876 -223 0
-877 -226 0
-878 -227 0
-879 -230 0
-880 -231 0
-881 -234 0
-882 -235 0
-883 -238 0
-884 -239 0
-885 -242 0
-886 -243 0
-887 -246 0
-888 -247 0
-889 -250 0
-890 -251 0
-891 -254 0
-892 -255 0
-893 -258 0
-894 -259 0
-895 -262 0
-896 -263 0
-897 -266 0
-898 -267 0
-899 -270 0
-900 -271 0
-901 -274 0
-902 -275 0
-903 -278 0
-904 -279 0
-905 -282 0
-906 -283 0
-907 -286 0
-908 -287 0
-909 -290 0
-910 -291 0
-911 -294 0
-912 -295 0
-913 -298 0
-914 -299 0
-915 -302 0
-916 -303 0
-917 -306 0
-918 -307 0
-919 -310 0
-920 -311 0
-921 -314 0
-922 -315 0
-923 -318 0
-924 -319 0
-925 -322 0
-926 -323 0
-927 -326 0
-928 -327 0
-929 -330 0
-930 -331 0
-931 -334 0
-932 -335 0
-933 -338 0
-934 -339 0
-935 -342 0
-936 -343 0
-937 -346 0
-938 -347 0
-939 -350 0
-940 -351 0
-941 -354 0
-942 -355 0
-943 -358 0
-944 -359 0
-945 -362 0
-946 -363 0
-947 -366 0
-948 -367 0
-949 -370 0
-950 -371 0
-951 -374 0
-952 -375 0
-953 -378 0
-954 -379 0
-955 -382 0
-956 -383 0
-957 -386 0
-958 -387 0
-959 -390 0
-960 -391 0
-961 -394 0
-962 -395 0
-963 -398 0
-964 -399 0
-965 -402 0
-966 -403 0
-967 -406 0
-968 -407 0
-969 -410 0
-970 -411 0
-971 -414 0
-972 -415 0
-973 -418 0
-974 -419 0
-975 -422 0
-976 -423 0
-977 -426 0
-978 -427 0
-979 -430 0
-980 -431 0
-981 -434 0
-982 -435 0
-983 -438 0
-984 -439 0
-985 -442 0
-986 -443 0
-987 -446 0
-988 -447 0
-989 -450 0
-990 -451 0
-991 -454 0
-992 -455 0
-993 -458 0
-994 -459 0
-995 -462 0
-996 -463 0
-997 -466 0
-998 -467 0
-999 -470 0
-1000 -471 0
-1001 -474 0
-1002 -475 0
-1003 -478 0
-1004 -479 0
-1005 -482 0
-1006 -483 0
-1007 -486 0
-1008 -487 0
-1009 -490 0
-1010 -491 0
-1011 -494 0
-1012 -495 0
-1013 -498 0
-1014 -499 0
-1015 -502 0
-1016 -503 0
-1017 -506 0
-1018 -507 0
-1019 -510 0
-1020 -511 0
1021 0
-1022 4 5 0
1022 -4 0
1022 -5 0
-1023 1022 6 0
1023 -1022 0
1023 -6 0
-1024 1023 7 0
1024 -1023 0
1024 -7 0
-1025 1024 12 0
1025 -1024 0
1025 -12 0
-1026 1025 13 0
1026 -1025 0
1026 -13 0
-1027 1026 14 0
1027 -1026 0
1027 -14 0
-1028 1027 15 0
1028 -1027 0
1028 -15 0
-1029 1028 20 0
1029 -1028 0
1029 -20 0
-1030 1029 21 0
1030 -1029 0
1030 -21 0
-1031 1030 22 0
1031 -1030 0
1031 -22 0
-1032 1031 23 0
1032 -1031 0
1032 -23 0
-1033 1032 28 0
1033 -1032 0
1033 -28 0
-1034 1033 29 0
1034 -1033 0
1034 -29 0
-1035 1034 30 0
1035 -1034 0
1035 -30 0
-1036 1035 31 0
1036 -1035 0
1036 -31 0
-1037 1036 36 0
1037 -1036 0
1037 -36 0
-1038 1037 37 0
1038 -1037 0
1038 -37 0
-1039 1038 38 0
1039 -1038 0
1039 -38 0
-1040 1039 39 0
1040 -1039 0
1040 -39 0
-1041 1040 44 0
1041 -1040 0
1041 -44 0
-1042 1041 45 0
1042 -1041 0
1042 -45 0
-1043 1042 46 0
1043 -1042 0
1043 -46 0
-1044 1043 47 0
1044 -1043 0
1044 -47 0
-1045 1044 52 0
1045 -1044 0
1045 -52 0
-1046 1045 53 0
1046 -1045 0
1046 -53 0
-1047 1046 54 0
1047 -1046 0
1047 -54 0
-1048 1047 55 0
1048 -1047 0
1048 -55 0
-1049 1048 60 0
1049 -1048 0
1049 -60 0
-1050 1049 61 0
1050 -1049 0
1050 -61 0
-1051 1050 62 0
1051 -1050 0
1051 -62 0
-1052 1051 63 0
1052 -1051 0
1052 -63 0
-1053 1052 68 0
1053 -1052 0
1053 -68 0
-1054 1053 69 0
1054 -1053 0
1054 -69 0
-1055 1054 70 0
1055 -1054 0
1055 -70 0
-1056 1055 71 0
1056 -1055 0
1056 -71 0
-1057 1056 76 0
1057 -1056 0
1057 -76 0
-1058 1057 77 0
1058 -1057 0
1058 -77 0
-1059 1058 78 0
1059 -1058 0
1059 -78 0
-1060 1059 79 0
1060 -1059 0
1060 -79 0
-1061 1060 84 0
1061 -1060 0
1061 -84 0
-1062 1061 85 0
1062 -1061 0
1062 -85 0
-1063 1062 86 0
1063 -1062 0
1063 -86 0
-1064 1063 87 0
1064 -1063 0
1064 -87 0
-1065 1064 92 0
1065 -1064 0
1065 -92 0
-1066 1065 93 0
1066 -1065 0
1066 -93 0
-1067 1066 94 0
1067 -1066 0
1067 -94 0
-1068 1067 95 0
1068 -1067 0
1068 -95 0
-1069 1068 100 0
1069 -1068 0
1069 -100 0
-1070 1069 101 0
1070 -1069 0
1070 -101 0
-1071 1070 102 0
1071 -1070 0
1071 -102 0
-1072 1071 103 0
1072 -1071 0
1072 -103 0
-1073 1072 108 0
1073 -1072 0
1073 -108 0
-1074 1073 109 0
1074 -1073 0
1074 -109 0
-1075 1074 110 0
1075 -1074 0
1075 -110 0
-1076 1075 111 0
1076 -1075 0
1076 -111 0
-1077 1076 116 0
1077 -1076 0
1077 -116 0
-1078 1077 117 0
1078 -1077 0
1078 -117 0
-1079 1078 118 0
1079 -1078 0
1079 -118 0
-1080 1079 119 0
1080 -1079 0
1080 -119 0
-1081 1080 124 0
1081 -1080 0
1081 -124 0
-1082 1081 125 0
1082 -1081 0
1082 -125 0
-1083 1082 126 0
1083 -1082 0
1083 -126 0
-1084 1083 127 0
1084 -1083 0
1084 -127 0
-1085 1084 132 0
1085 -1084 0
1085 -132 0
-1086 1085 133 0
1086 -1085 0
1086 -133 0
-1087 1086 134 0
1087 -1086 0
1087 -134 0
-1088 1087 135 0
1088 -1087 0
1088 -135 0
-1089 1088 140 0
1089 -1088 0
1089 -140 0
-1090 1089 141 0
1090 -1089 0
1090 -141 0
-1091 1090 142 0
1091 -1090 0
1091 -142 0
-1092 1091 143 0
1092 -1091 0
1092 -143 0
-1093 1092 148 0
1093 -1092 0
1093 -148 0
-1094 1093 149 0
1094 -1093 0
1094 -149 0
-1095 1094 150 0
1095 -1094 0
1095 -150 0
-1096 1095 151 0
1096 -1095 0
1096 -151 0
-1097 1096 156 0
1097 -1096 0
1097 -156 0
-1098 1097 157 0
1098 -1097 0
1098 -157 0
-1099 1098 158 0
1099 -1098 0
1099 -158 0
-1100 1099 159 0
1100 -1099 0
1100 -159 0
-1101 1100 164 0
1101 -1100 0
1101 -164 0
-1102 1101 165 0
1102 -1101 0
1102 -165 0
-1103 1102 166 0
1103 -1102 0
1103 -166 0
-1104 1103 167 0
1104 -1103 0
1104 -167 0
-1105 1104 172 0
1105 -1104 0
1105 -172 0
-1106 1105 173 0
1106 -1105 0
1106 -173 0
-1107 1106 174 0
1107 -1106 0
1107 -174 0
-1108 1107 175 0
1108 -1107 0
1108 -175 0
-1109 1108 180 0
1109 -1108 0
1109 -180 0
-1110 1109 181 0
1110 -1109 0
1110 -181 0
-1111 1110 182 0
1111 -1110 0
1111 -182 0
-1112 1111 183 0
1112 -1111 0
1112 -183 0
-1113 1112 188 0
1113 -1112 0
1113 -188 0
-1114 1113 189 0
1114 -1113 0
1114 -189 0
-1115 1114 190 0
1115 -1114 0
1115 -190 0
-1116 1115 191 0
1116 -1115 0
1116 -191 0
-1117 1116 196 0
1117 -1116 0
1117 -196 0
-1118 1117 197 0
1118 -1117 0
1118 -197 0
-1119 1118 198 0
1119 -1118 0
1119 -198 0
-1120 1119 199 0
1120 -1119 0
1120 -199 0
-1121 1120 204 0
1121 -1120 0
1121 -204 0
-1122 1121 205 0
1122 -1121 0
1122 -205 0
-1123 1122 206 0
1123 -1122 0
1123 -206 0
-1124 1123 207 0
1124 -1123 0
1124 -207 0
-1125 1124 212 0
1125 -1124 0
1125 -212 0
-1126 1125 213 0
1126 -1125 0
1126 -213 0
-1127 1126 214 0
1127 -1126 0
1127 -214 0
-1128 1127 215 0
1128 -1127 0
1128 -215 0
-1129 1128 220 0
1129 -1128 0
1129 -220 0
-1130 1129 221 0
1130 -1129 0
1130 -221 0
-1131 1130 222 0
1131 -1130 0
1131 -222 0
-1132 1131 223 0
1132 -1131 0
1132 -223 0
-1133 1132 228 0
1133 -1132 0
1133 -228 0
-1134 1133 229 0
1134 -1133 0
1134 -229 0
-1135 1134 230 0
1135 -1134 0
1135 -230 0
-1136 1135 231 0
1136 -1135 0
1136 -231 0
-1137 1136 236 0
1137 -1136 0
1137 -236 0
-1138 1137 237 0
1138 -1137 0
1138 -237 0
-1139 1138 238 0
1139 -1138 0
1139 -238 0
-1140 1139 239 0
1140 -1139 0
1140 -239 0
-1141 1140 244 0
1141 -1140 0
1141 -244 0
-1142 1141 245 0
1142 -1141 0
1142 -245 0
-1143 1142 246 0
1143 -1142 0
1143 -246 0
-1144 1143 247 0
1144 -1143 0
1144 -247 0
-1145 1144 252 0
1145 -1144 0
1145 -252 0
-1146 1145 253 0
1146 -1145 0
1146 -253 0
-1147 1146 254 0
1147 -1146 0
1147 -254 0
-1148 1147 255 0
1148 -1147 0
1148 -255 0
-1149 1148 260 0
1149 -1148 0
1149 -260 0
-1150 1149 261 0
1150 -1149 0
1150 -261 0
-1151 1150 262 0
1151 -1150 0
1151 -262 0
-1152 1151 263 0
1152 -1151 0
1152 -263 0
-1153 1152 268 0
1153 -1152 0
1153 -268 0
-1154 1153 269 0
1154 -1153 0
1154 -269 0
-1155 1154 270 0
1155 -1154 0
1155 -270 0
-1156 1155 271 0
1156 -1155 0
1156 -271 0
-1157 1156 276 0
1157 -1156 0
1157 -276 0
-1158 1157 277 0
1158 -1157 0
1158 -277 0
-1159 1158 278 0
1159 -1158 0
1159 -278 0
-1160 1159 279 0
1160 -1159 0
1160 -279 0
-1161 1160 284 0
1161 -1160 0
1161 -284 0
-1162 1161 285 0
1162 -1161 0
1162 -285 0
-1163 1162 286 0
1163 -1162 0
1163 -286 0
-1164 1163 287 0
1164 -1163 0
1164 -287 0
-1165 1164 292 0
1165 -1164 0
1165 -292 0
-1166 1165 293 0
1166 -1165 0
1166 -293 0
-1167 1166 294 0
1167 -1166 0
1167 -294 0
-1168 1167 295 0
1168 -1167 0
1168 -295 0
-1169 1168 300 0
1169 -1168 0
1169 -300 0
-1170 1169 301 0
1170 -1169 0
1170 -301 0
-1171 1170 302 0
1171 -1170 0
1171 -302 0
-1172 1171 303 0
1172 -1171 0
1172 -303 0
-1173 1172 308 0
1173 -1172 0
1173 -308 0
-1174 1173 309 0
1174 -1173 0
1174 -309 0
-1175 1174 310 0
1175 -1174 0
1175 -310 0
-1176 1175 311 0
1176 -1175 0
1176 -311 0
-1177 1176 316 0
1177 -1176 0
1177 -316 0
-1178 1177 317 0
1178 -1177 0
1178 -317 0
-1179 1178 318 0
1179 -1178 0
1179 -318 0
-1180 1179 319 0
1180 -1179 0
1180 -319 0
-1181 1180 324 0
1181 -1180 0
1181 -324 0
-1182 1181 325 0
1182 -1181 0
1182 -325 0
-1183 1182 326 0
1183 -1182 0
1183 -326 0
-1184 1183 327 0
1184 -1183 0
1184 -327 0
-1185 1184 332 0
1185 -1184 0
1185 -332 0
-1186 1185 333 0
1186 -1185 0
1186 -333 0
-1187 1186 334 0
1187 -1186 0
1187 -334 0
-1188 1187 335 0
1188 -1187 0
1188 -335 0
-1189 1188 340 0
1189 -1188 0
1189 -340 0
-1190 1189 341 0
1190 -1189 0
1190 -341 0
-1191 1190 342 0
1191 -1190 0
1191 -342 0
-1192 1191 343 0
1192 -1191 0
1192 -343 0
-1193 1192 348 0
1193 -1192 0
1193 -348 0
-1194 1193 349 0
1194 -1193 0
1194 -349 0
-1195 1194 350 0
1195 -1194 0
1195 -350 0
-1196 1195 351 0
1196 -1195 0
1196 -351 0
-1197 1196 356 0
1197 -1196 0
1197 -356 0
-1198 1197 357 0
1198 -1197 0
1198 -357 0
-1199 1198 358 0
1199 -1198 0
1199 -358 0
-1200 1199 359 0
1200 -1199 0
1200 -359 0
-1201 1200 364 0
1201 -1200 0
1201 -364 0
-1202 1201 365 0
1202 -1201 0
1202 -365 0
-1203 1202 366 0
1203 -1202 0
1203 -366 0
-1204 1203 367 0
1204 -1203 0
1204 -367 0
-1205 1204 372 0
1205 -1204 0
1205 -372 0
-1206 1205 373 0
1206 -1205 0
1206 -373 0
-1207 1206 374 0
1207 -1206 0
1207 -374 0
-1208 1207 375 0
1208 -1207 0
1208 -375 0
-1209 1208 380 0
1209 -1208 0
1209 -380 0
-1210 1209 381 0
1210 -1209 0
1210 -381 0
-1211 1210 382 0
1211 -1210 0
1211 -382 0
-1212 1211 383 0
1212 -1211 0
1212 -383 0
-1213 1212 388 0
1213 -1212 0
1213 -388 0
-1214 1213 389 0
1214 -1213 0
1214 -389 0
-1215 1214 390 0
1215 -1214 0
1215 -390 0
-1216 1215 391 0
1216 -1215 0
1216 -391 0
-1217 1216 396 0
1217 -1216 0
1217 -396 0
-1218 1217 397 0
1218 -1217 0
1218 -397 0
-1219 1218 398 0
1219 -1218 0
1219 -398 0
-1220 1219 399 0
1220 -1219 0
1220 -399 0
-1221 1220 404 0
1221 -1220 0
1221 -404 0
-1222 1221 405 0
1222 -1221 0
1222 -405 0
-1223 1222 406 0
1223 -1222 0
1223 -406 0
-1224 1223 407 0
1224 -1223 0
1224 -407 0
-1225 1224 412 0
1225 -1224 0
1225 -412 0
-1226 1225 413 0
1226 -1225 0
1226 -413 0
-1227 1226 414 0
1227 -1226 0
1227 -414 0
-1228 1227 415 0
1228 -1227 0
1228 -415 0
-1229 1228 420 0
1229 -1228 0
1229 -420 0
-1230 1229 421 0
1230 -1229 0
1230 -421 0
-1231 1230 422 0
1231 -1230 0
1231 -422 0
-1232 1231 423 0
1232 -1231 0
1232 -423 0
-1233 1232 428 0
1233 -1232 0
1233 -428 0
-1234 1233 429 0
1234 -1233 0
1234 -429 0
-1235 1234 430 0
1235 -1234 0
1235 -430 0
-1236 1235 431 0
1236 -1235 0
1236 -431 0
-1237 1236 436 0
1237 -1236 0
1237 -436 0
-1238 1237 437 0
1238 -1237 0
1238 -437 0
-1239 1238 438 0
1239 -1238 0
1239 -438 0
-1240 1239 439 0
1240 -1239 0
1240 -439 0
-1241 1240 444 0
1241 -1240 0
1241 -444 0
-1242 1241 445 0
1242 -1241 0
1242 -445 0
-1243 1242 446 0
1243 -1242 0
1243 -446 0
-1244 1243 447 0
1244 -1243 0
1244 -447 0
-1245 1244 452 0
1245 -1244 0
1245 -452 0
-1246 1245 453 0
1246 -1245 0
1246 -453 0
-1247 1246 454 0
1247 -1246 0
1247 -454 0
-1248 1247 455 0
1248 -1247 0
1248 -455 0
-1249 1248 460 0
1249 -1248 0
1249 -460 0
-1250 1249 461 0
1250 -1249 0
1250 -461 0
-1251 1250 462 0
1251 -1250 0
1251 -462 0
-1252 1251 463 0
1252 -1251 0
1252 -463 0
-1253 1252 468 0
1253 -1252 0
1253 -468 0
-1254 1253 469 0
1254 -1253 0
1254 -469 0
-1255 1254 470 0
1255 -1254 0
1255 -470 0
-1256 1255 471 0
1256 -1255 0
1256 -471 0
-1257 1256 476 0
1257 -1256 0
1257 -476 0
-1258 1257 477 0
1258 -1257 0
1258 -477 0
-1259 1258 478 0
1259 -1258 0
1259 -478 0
-1260 1259 479 0
1260 -1259 0
1260 -479 0
-1261 1260 484 0
1261 -1260 0
1261 -484 0
-1262 1261 485 0
1262 -1261 0
1262 -485 0
-1263 1262 486 0
1263 -1262 0
1263 -486 0
-1264 1263 487 0
1264 -1263 0
1264 -487 0
-1265 1264 492 0
1265 -1264 0
1265 -492 0
-1266 1265 493 0
1266 -1265 0
1266 -493 0
-1267 1266 494 0
1267 -1266 0
1267 -494 0
-1268 1267 495 0
1268 -1267 0
1268 -495 0
-1269 1268 500 0
1269 -1268 0
1269 -500 0
-1270 1269 501 0
1270 -1269 0
1270 -501 0
-1271 1270 502 0
1271 -1270 0
1271 -502 0
-1272 1271 503 0
1272 -1271 0
1272 -503 0
-1273 1272 508 0
1273 -1272 0
1273 -508 0
-1274 1273 509 0
1274 -1273 0
1274 -509 0
-1275 1274 510 0
1275 -1274 0
1275 -510 0
1275 511 0
-4 -5 0
-1022 -6 0
-1023 -7 0
-1024 -12 0
-1025 -13 0
-1026 -14 0
-1027 -15 0
-1028 -20 0
-1029 -21 0
-1030 -22 0
-1031 -23 0
-1032 -28 0
-1033 -29 0
-1034 -30 0
-1035 -31 0
-1036 -36 0
-1037 -37 0
-1038 -38 0
-1039 -39 0
-1040 -44 0
-1041 -45 0
-1042 -46 0
-1043 -47 0
-1044 -52 0
-1045 -53 0
-1046 -54 0
-1047 -55 0
-1048 -60 0
-1049 -61 0
-1050 -62 0
-1051 -63 0
-1052 -68 0
-1053 -69 0
-1054 -70 0
-1055 -71 0
-1056 -76 0
-1057 -77 0
-1058 -78 0
-1059 -79 0
-1060 -84 0
-1061 -85 0
-1062 -86 0
-1063 -87 0
-1064 -92 0
-1065 -93 0
-1066 -94 0
-1067 -95 0
-1068 -100 0
-1069 -101 0
-1070 -102 0
-1071 -103 0
-1072 -108 0
-1073 -109 0
-1074 -110 0
-1075 -111 0
-1076 -116 0
-1077 -117 0
-1078 -118 0
-1079 -119 0
-1080 -124 0
-1081 -125 0
-1082 -126 0
-1083 -127 0
-1084 -132 0
-1085 -133 0
-1086 -134 0
-1087 -135 0
-1088 -140 0
-1089 -141 0
-1090 -142 0
-1091 -143 0
-1092 -148 0
-1093 -149 0
-1094 -150 0
-1095 -151 0
-1096 -156 0
-1097 -157 0
-1098 -158 0
-1099 -159 0
-1100 -164 0
-1101 -165 0
-1102 -166 0
-1103 -167 0
-1104 -172 0
-1105 -173 0
-1106 -174 0
-1107 -175 0
-1108 -180 0
-1109 -181 0
-1110 -182 0
-1111 -183 0
-1112 -188 0
-1113 -189 0
-1114 -190 0
-1115 -191 0
-1116 -196 0
-1117 -197 0
-1118 -198 0
-1119 -199 0
-1120 -204 0
-1121 -205 0
-1122 -206 0
-1123 -207 0
-1124 -212 0
-1125 -213 0
-1126 -214 0
-1127 -215 0
-1128 -220 0
-1129 -221 0
-1130 -222 0
-1131 -223 0
-1132 -228 0
-1133 -229 0
-1134 -230 0
-1135 -231 0
-1136 -236 0
-1137 -237 0
-1138 -238 0
-1139 -239 0
-1140 -244 0
-1141 -245 0
-1142 -246 0
-1143 -247 0
-1144 -252 0
-1145 -253 0
-1146 -254 0
-1147 -255 0
-1148 -260 0
-1149 -261 0
-1150 -262 0
-1151 -263 0
-1152 -268 0
-1153 -269 0
-1154 -270 0
-1155 -271 0
-1156 -276 0
-1157 -277 0
-1158 -278 0
-1159 -279 0
-1160 -284 0
-1161 -285 0
-1162 -286 0
-1163 -287 0
-1164 -292 0
-1165 -293 0
-1166 -294 0
-1167 -295 0
-1168 -300 0
-1169 -301 0
-1170 -302 0
-1171 -303 0
-1172 -308 0
-1173 -309 0
-1174 -310 0
-1175 -311 0
-1176 -316 0
-1177 -317 0
-1178 -318 0
-1179 -319 0
-1180 -324 0
-1181 -325 0
-1182 -326 0
-1183 -327 0
-1184 -332 0
-1185 -333 0
-1186 -334 0
-1187 -335 0
-1188 -340 0
-1189 -341 0
-1190 -342 0
-1191 -343 0
-1192 -348 0
-1193 -349 0
-1194 -350 0
-1195 -351 0
-1196 -356 0
-1197 -357 0
-1198 -358 0
-1199 -359 0
-1200 -364 0
-1201 -365 0
-1202 -366 0
-1203 -367 0
-1204 -372 0
-1205 -373 0
-1206 -374 0
-1207 -375 0
-1208 -380 0
-1209 -381 0
-1210 -382 0
-1211 -383 0
-1212 -388 0
-1213 -389 0
-1214 -390 0
-1215 -391 0
-1216 -396 0
-1217 -397 0
-1218 -398 0
-1219 -399 0
-1220 -404 0
-1221 -405 0
-1222 -406 0
-1223 -407 0
-1224 -412 0
-1225 -413 0
-1226 -414 0
-1227 -415 0
-1228 -420 0
-1229 -421 0
-1230 -422 0
-1231 -423 0
-1232 -428 0
-1233 -429 0
-1234 -430 0
-1235 -431 0
-1236 -436 0
-1237 -437 0
-1238 -438 0
-1239 -439 0
-1240 -444 0
-1241 -445 0
-1242 -446 0
-1243 -447 0
-1244 -452 0
-1245 -453 0
-1246 -454 0
-1247 -455 0
-1248 -460 0
-1249 -461 0
-1250 -462 0
-1251 -463 0
-1252 -468 0
-1253 -469 0
-1254 -470 0
-1255 -471 0
-1256 -476 0
-1257 -477 0
-1258 -478 0
-1259 -479 0
-1260 -484 0
-1261 -485 0
-1262 -486 0
-1263 -487 0
-1264 -492 0
-1265 -493 0
-1266 -494 0
-1267 -495 0
-1268 -500 0
-1269 -501 0
-1270 -502 0
-1271 -503 0
-1272 -508 0
-1273 -509 0
-1274 -510 0
-1275 -511 0
1276 0
-1277 8 9 0
1277 -8 0
1277 -9 0
-1278 1277 10 0
1278 -1277 0
1278 -10 0
-1279 1278 11 0
1279 -1278 0
1279 -11 0
-1280 1279 12 0
1280 -1279 0
1280 -12 0
-1281 1280 13 0
1281 -1280 0
1281 -13 0
-1282 1281 14 0
1282 -1281 0
1282 -14 0
-1283 1282 15 0
1283 -1282 0
1283 -15 0
-1284 1283 24 0
1284 -1283 0
1284 -24 0
-1285 1284 25 0
1285 -1284 0
1285 -25 0
-1286 1285 26 0
1286 -1285 0
1286 -26 0
-1287 1286 27 0
1287 -1286 0
1287 -27 0
-1288 1287 28 0
1288 -1287 0
1288 -28 0
-1289 1288 29 0
1289 -1288 0
1289 -29 0
-1290 1289 30 0
1290 -1289 0
1290 -30 0
-1291 1290 31 0
1291 -1290 0
1291 -31 0
-1292 1291 40 0
1292 -1291 0
1292 -40 0
-1293 1292 41 0
1293 -1292 0
1293 -41 0
-1294 1293 42 0
1294 -1293 0
1294 -42 0
-1295 1294 43 0
1295 -1294 0
1295 -43 0
-1296 1295 44 0
1296 -1295 0
1296 -44 0
-1297 1296 45 0
1297 -1296 0
1297 -45 0
-1298 1297 46 0
1298 -1297 0
1298 -46 0
-1299 1298 47 0
1299 -1298 0
1299 -47 0
-1300 1299 56 0
1300 -1299 0
1300 -56 0
-1301 1300 57 0
1301 -1300 0
1301 -57 0
-1302 1301 58 0
1302 -1301 0
1302 -58 0
-1303 1302 59 0
1303 -1302 0
1303 -59 0
-1304 1303 60 0
1304 -1303 0
1304 -60 0
-1305 1304 61 0
1305 -1304 0
1305 -61 0
-1306 1305 62 0
1306 -1305 0
1306 -62 0
-1307 1306 63 0
1307 -1306 0
1307 -63 0
-1308 1307 72 0
1308 -1307 0
1308 -72 0
-1309 1308 73 0
1309 -1308 0
1309 -73 0
-1310 1309 74 0
1310 -1309 0
1310 -74 0
-1311 1310 75 0
1311 -1310 0
1311 -75 0
-1312 1311 76 0
1312 -1311 0
1312 -76 0
-1313 1312 77 0
1313 -1312 0
1313 -77 0
-1314 1313 78 0
1314 -1313 0
1314 -78 0
-1315 1314 79 0
1315 -1314 0
1315 -79 0
-1316 1315 88 0
1316 -1315 0
1316 -88 0
-1317 1316 89 0
1317 -1316 0
1317 -89 0
-1318 1317 90 0
1318 -1317 0
1318 -90 0
-1319 1318 91 0
1319 -1318 0
1319 -91 0
-1320 1319 92 0
1320 -1319 0
1320 -92 0
-1321 1320 93 0
1321 -1320 0
1321 -93 0
-1322 1321 94 0
1322 -1321 0
1322 -94 0
-1323 1322 95 0
1323 -1322 0
1323 -95 0
-1324 1323 104 0
1324 -1323 0
1324 -104 0
-1325 1324 105 0
1325 -1324 0
1325 -105 0
-1326 1325 106 0
1326 -1325 0
1326 -106 0
-1327 1326 107 0
1327 -1326 0
1327 -107 0
-1328 1327 108 0
1328 -1327 0
1328 -108 0
-1329 1328 109 0
1329 -1328 0
1329 -109 0
-1330 1329 110 0
1330 -1329 0
1330 -110 0
-1331 1330 111 0
1331 -1330 0
1331 -111 0
-1332 1331 120 0
1332 -1331 0
1332 -120 0
-1333 1332 121 0
1333 -1332 0
1333 -121 0
-1334 1333 122 0
1334 -1333 0
1334 -122 0
-1335 1334 123 0
1335 -1334 0
1335 -123 0
-1336 1335 124 0
1336 -1335 0
1336 -124 0
-1337 1336 125 0
1337 -1336 0
1337 -125 0
-1338 1337 126 0
1338 -1337 0
1338 -126 0
-1339 1338 127 0
1339 -1338 0
1339 -127 0
-1340 1339 136 0
1340 -1339 0
1340 -136 0
-1341 1340 137 0
1341 -1340 0
1341 -137 0
-1342 1341 138 0
1342 -1341 0
1342 -138 0
-1343 1342 139 0
1343 -1342 0
1343 -139 0
-1344 1343 140 0
1344 -1343 0
1344 -140 0
-1345 1344 141 0
1345 -1344 0
1345 -141 0
-1346 1345 142 0
1346 -1345 0
1346 -142 0
-1347 1346 143 0
1347 -1346 0
1347 -143 0
-1348 1347 152 0
1348 -1347 0
1348 -152 0
-1349 1348 153 0
1349 -1348 0
1349 -153 0
-1350 1349 154 0
1350 -1349 0
1350 -154 0
-1351 1350 155 0
1351 -1350 0
1351 -155 0
-1352 1351 156 0
1352 -1351 0
1352 -156 0
-1353 1352 157 0
1353 -1352 0
1353 -157 0
-1354 1353 158 0
1354 -1353 0
1354 -158 0
-1355 1354 159 0
1355 -1354 0
1355 -159 0
-1356 1355 168 0
1356 -1355 0
1356 -168 0
-1357 1356 169 0
1357 -1356 0
1357 -169 0
-1358 1357 170 0
1358 -1357 0
1358 -170 0
-1359 1358 171 0
1359 -1358 0
1359 -171 0
-1360 1359 172 0
1360 -1359 0
1360 -172 0
-1361 1360 173 0
1361 -1360 0
1361 -173 0
-1362 1361 174 0
1362 -1361 0
1362 -174 0
-1363 1362 175 0
1363 -1362 0
1363 -175 0
-1364 1363 184 0
1364 -1363 0
1364 -184 0
-1365 1364 185 0
1365 -1364 0
1365 -185 0
-1366 1365 186 0
1366 -1365 0
1366 -186 0
-1367 1366 187 0
1367 -1366 0
1367 -187 0
-1368 1367 188 0
1368 -1367 0
1368 -188 0
-1369 1368 189 0
1369 -1368 0
1369 -189 0
-1370 1369 190 0
1370 -1369 0
1370 -190 0
-1371 1370 191 0
1371 -1370 0
1371 -191 0
-1372 1371 200 0
1372 -1371 0
1372 -200 0
-1373 1372 201 0
1373 -1372 0
1373 -201 0
-1374 1373 202 0
1374 -1373 0
1374 -202 0
-1375 1374 203 0
1375 -1374 0
1375 -203 0
-1376 1375 204 0
1376 -1375 0
1376 -204 0
-1377 1376 205 0
1377 -1376 0
1377 -205 0
-1378 1377 206 0
1378 -1377 0
1378 -206 0
-1379 1378 207 0
1379 -1378 0
1379 -207 0
-1380 1379 216 0
1380 -1379 0
1380 -216 0
-1381 1380 217 0
1381 -1380 0
1381 -217 0
-1382 1381 218 0
1382 -1381 0
1382 -218 0
-1383 1382 219 0
1383 -1382 0
1383 -219 0
-1384 1383 220 0
1384 -1383 0
1384 -220 0
-1385 1384 221 0
1385 -1384 0
1385 -221 0
-1386 1385 222 0
1386 -1385 0
1386 -222 0
-1387 1386 223 0
1387 -1386 0
1387 -223 0
-1388 1387 232 0
1388 -1387 0
1388 -232 0
-1389 1388 233 0
1389 -1388 0
1389 -233 0
-1390 1389 234 0
1390 -1389 0
1390 -234 0
-1391 1390 235 0
1391 -1390 0
1391 -235 0
-1392 1391 236 0
1392 -1391 0
1392 -236 0
-1393 1392 237 0
1393 -1392 0
1393 -237 0
-1394 1393 238 0
1394 -1393 0
1394 -238 0
-1395 1394 239 0
1395 -1394 0
1395 -239 0
-1396 1395 248 0
1396 -1395 0
1396 -248 0
-1397 1396 249 0
1397 -1396 0
1397 -249 0
-1398 1397 250 0
1398 -1397 0
1398 -250 0
-1399 1398 251 0
1399 -1398 0
1399 -251 0
-1400 1399 252 0
1400 -1399 0
1400 -252 0
-1401 1400 253 0
1401 -1400 0
1401 -253 0
-1402 1401 254 0
1402 -1401 0
1402 -254 0
-1403 1402 255 0
1403 -1402 0
1403 -255 0
-1404 1403 264 0
1404 -1403 0
1404 -264 0
-1405 1404 265 0
1405 -1404 0
1405 -265 0
-1406 1405 266 0
1406 -1405 0
1406 -266 0
-1407 1406 267 0
1407 -1406 0
1407 -267 0
-1408 1407 268 0
1408 -1407 0
1408 -268 0
-1409 1408 269 0
1409 -1408 0
1409 -269 0
-1410 1409 270 0
1410 -1409 0
1410 -270 0
-1411 1410 271 0
1411 -1410 0
1411 -271 0
-1412 1411 280 0
1412 -1411 0
1412 -280 0
-1413 1412 281 0
1413 -1412 0
1413 -281 0
-1414 1413 282 0
1414 -1413 0
1414 -282 0
-1415 1414 283 0
1415 -1414 0
1415 -283 0
-1416 1415 284 0
1416 -1415 0
1416 -284 0
-1417 1416 285 0
1417 -1416 0
1417 -285 0
-1418 1417 286 0
1418 -1417 0
1418 -286 0
-1419 1418 287 0
1419 -1418 0
1419 -287 0
-1420 1419 296 0
1420 -1419 0
1420 -296 0
-1421 1420 297 0
1421 -1420 0
1421 -297 0
-1422 1421 298 0
1422 -1421 0
1422 -298 0
-1423 1422 299 0
1423 -1422 0
1423 -299 0
-1424 1423 300 0
1424 -1423 0
1424 -300 0
-1425 1424 301 0
1425 -1424 0
1425 -301 0
-1426 1425 302 0
1426 -1425 0
1426 -302 0
-1427 1426 303 0
1427 -1426 0
1427 -303 0
-1428 1427 312 0
1428 -1427 0
1428 -312 0
-1429 1428 313 0
1429 -1428 0
1429 -313 0
-1430 1429 314 0
1430 -1429 0
1430 -314 0
-1431 1430 315 0
1431 -1430 0
1431 -315 0
-1432 1431 316 0
1432 -1431 0
1432 -316 0
-1433 1432 317 0
1433 -1432 0
1433 -317 0
-1434 1433 318 0
1434 -1433 0
1434 -318 0
-1435 1434 319 0
1435 -1434 0
1435 -319 0
-1436 1435 328 0
1436 -1435 0
1436 -328 0
-1437 1436 329 0
1437 -1436 0
1437 -329 0
-1438 1437 330 0
1438 -1437 0
1438 -330 0
-1439 1438 331 0
1439 -1438 0
1439 -331 0
-1440 1439 332 0
1440 -1439 0
1440 -332 0
-1441 1440 333 0
1441 -1440 0
1441 -333 0
-1442 1441 334 0
1442 -1441 0
1442 -334 0
-1443 1442 335 0
1443 -1442 0
1443 -335 0
-1444 1443 344 0
1444 -1443 0
1444 -344 0
-1445 1444 345 0
1445 -1444 0
1445 -345 0
-1446 1445 346 0
1446 -1445 0
1446 -346 0
-1447 1446 347 0
1447 -1446 0
1447 -347 0
-1448 1447 348 0
1448 -1447 0
1448 -348 0
-1449 1448 349 0
1449 -1448 0
1449 -349 0
-1450 1449 350 0
1450 -1449 0
1450 -350 0
-1451 1450 351 0
1451 -1450 0
1451 -351 0
-1452 1451 360 0
1452 -1451 0
1452 -360 0
-1453 1452 361 0
1453 -1452 0
1453 -361 0
-1454 1453 362 0
1454 -1453 0
1454 -362 0
-1455 1454 363 0
1455 -1454 0
1455 -363 0
-1456 1455 364 0
1456 -1455 0
1456 -364 0
-1457 1456 365 0
1457 -1456 0
1457 -365 0
-1458 1457 366 0
1458 -1457 0
1458 -366 0
-1459 1458 367 0
1459 -1458 0
1459 -367 0
-1460 1459 376 0
1460 -1459 0
1460 -376 0
-1461 1460 377 0
1461 -1460 0
1461 -377 0
-1462 1461 378 0
1462 -1461 0
1462 -378 0
-1463 1462 379 0
1463 -1462 0
1463 -379 0
-1464 1463 380 0
1464 -1463 0
1464 -380 0
-1465 1464 381 0
1465 -1464 0
1465 -381 0
-1466 1465 382 0
1466 -1465 0
1466 -382 0
-1467 1466 383 0
1467 -1466 0
1467 -383 0
-1468 1467 392 0
1468 -1467 0
1468 -392 0
-1469 1468 393 0
1469 -1468 0
1469 -393 0
-1470 1469 394 0
1470 -1469 0
1470 -394 0
-1471 1470 395 0
1471 -1470 0
1471 -395 0
-1472 1471 396 0
1472 -1471 0
1472 -396 0
-1473 1472 397 0
1473 -1472 0
1473 -397 0
-1474 1473 398 0
1474 -1473 0
1474 -398 0
-1475 1474 399 0
1475 -1474 0
1475 -399 0
-1476 1475 408 0
1476 -1475 0
1476 -408 0
-1477 1476 409 0
1477 -1476 0
1477 -409 0
-1478 1477 410 0
1478 -1477 0
1478 -410 0
-1479 1478 411 0
1479 -1478 0
1479 -411 0
-1480 1479 412 0
1480 -1479 0
1480 -412 0
-1481 1480 413 0
1481 -1480 0
1481 -413 0
-1482 1481 414 0
1482 -1481 0
1482 -414 0
-1483 1482 415 0
1483 -1482 0
1483 -415 0
-1484 1483 424 0
1484 -1483 0
1484 -424 0
-1485 1484 425 0
1485 -1484 0
1485 -425 0
-1486 1485 426 0
1486 -1485 0
1486 -426 0
-1487 1486 427 0
1487 -1486 0
1487 -427 0
-1488 1487 428 0
1488 -1487 0
1488 -428 0
-1489 1488 429 0
1489 -1488 0
1489 -429 0
-1490 1489 430 0
1490 -1489 0
1490 -430 0
-1491 1490 431 0
1491 -1490 0
1491 -431 0
-1492 1491 440 0
1492 -1491 0
1492 -440 0
-1493 1492 441 0
1493 -1492 0
1493 -441 0
-1494 1493 442 0
1494 -1493 0
1494 -442 0
-1495 1494 443 0
1495 -1494 0
1495 -443 0
-1496 1495 444 0
1496 -1495 0
1496 -444 0
-1497 1496 445 0
1497 -1496 0
1497 -445 0
-1498 1497 446 0
1498 -1497 0
1498 -446 0
-1499 1498 447 0
1499 -1498 0
1499 -447 0
-1500 1499 456 0
1500 -1499 0
1500 -456 0
-1501 1500 457 0
1501 -1500 0
1501 -457 0
-1502 1501 458 0
1502 -1501 0
1502 -458 0
-1503 1502 459 0
1503 -1502 0
1503 -459 0
-1504 1503 460 0
1504 -1503 0
1504 -460 0
-1505 1504 461 0
1505 -1504 0
1505 -461 0
-1506 1505 462 0
1506 -1505 0
1506 -462 0
-1507 1506 463 0
1507 -1506 0
1507 -463 0
-1508 1507 472 0
1508 -1507 0
1508 -472 0
-1509 1508 473 0
1509 -1508 0
1509 -473 0
-1510 1509 474 0
1510 -1509 0
1510 -474 0
-1511 1510 475 0
1511 -1510 0
1511 -475 0
-1512 1511 476 0
1512 -1511 0
1512 -476 0
-1513 1512 477 0
1513 -1512 0
1513 -477 0
-1514 1513 478 0
1514 -1513 0
1514 -478 0
-1515 1514 479 0
1515 -1514 0
1515 -479 0
-1516 1515 488 0
1516 -1515 0
1516 -488 0
-1517 1516 489 0
1517 -1516 0
1517 -489 0
-1518 1517 490 0
1518 -1517 0
1518 -490 0
-1519 1518 491 0
1519 -1518 0
1519 -491 0
-1520 1519 492 0
1520 -1519 0
1520 -492 0
-1521 1520 493 0
1521 -1520 0
1521 -493 0
-1522 1521 494 0
1522 -1521 0
1522 -494 0
-1523 1522 495 0
1523 -1522 0
1523 -495 0
-1524 1523 504 0
1524 -1523 0
1524 -504 0
-1525 1524 505 0
1525 -1524 0
1525 -505 0
-1526 1525 506 0
1526 -1525 0
1526 -506 0
-1527 1526 507 0
1527 -1526 0
1527 -507 0
-1528 1527 508 0
1528 -1527 0
1528 -508 0
-1529 1528 509 0
1529 -1528 0
1529 -509 0
-1530 1529 510 0
1530 -1529 0
1530 -510 0
1530 511 0
-8 -9 0
-1277 -10 0
-1278 -11 0
-1279 -12 0
-1280 -13 0
-1281 -14 0
-1282 -15 0
-1283 -24 0
-1284 -25 0
-1285 -26 0
-1286 -27 0
-1287 -28 0
-1288 -29 0
-1289 -30 0
-1290 -31 0
-1291 -40 0
-1292 -41 0
-1293 -42 0
-1294 -43 0
-1295 -44 0
-1296 -45 0
-1297 -46 0
-1298 -47 0
-1299 -56 0
-1300 -57 0
-1301 -58 0
-1302 -59 0
-1303 -60 0
-1304 -61 0
-1305 -62 0
-1306 -63 0
-1307 -72 0
-1308 -73 0
-1309 -74 0
-1310 -75 0
-1311 -76 0
-1312 -77 0
-1313 -78 0
-1314 -79 0
-1315 -88 0
-1316 -89 0
-1317 -90 0
-1318 -91 0
-1319 -92 0
-1320 -93 0
-1321 -94 0
-1322 -95 0
-1323 -104 0
-1324 -105 0
-1325 -106 0
-1326 -107 0
-1327 -108 0
-1328 -109 0
-1329 -110 0
-1330 -111 0
-1331 -120 0
-1332 -121 0
-1333 -122 0
-1334 -123 0
-1335 -124 0
-1336 -125 0
-1337 -126 0
-1338 -127 0
-1339 -136 0
-1340 -137 0
-1341 -138 0
-1342 -139 0
-1343 -140 0
-1344 -141 0
-1345 -142 0
-1346 -143 0
-1347 -152 0
-1348 -153 0
-1349 -154 0
-1350 -155 0
-1351 -156 0
-1352 -157 0
-1353 -158 0
-1354 -159 0
-1355 -168 0
-1356 -169 0
-1357 -170 0
-1358 -171 0
-1359 -172 0
-1360 -173 0
-1361 -174 0
-1362 -175 0
-1363 -184 0
-1364 -185 0
-1365 -186 0
-1366 -187 0
-1367 -188 0
-1368 -189 0
-1369 -190 0
-1370 -191 0
-1371 -200 0
-1372 -201 0
-1373 -202 0
-1374 -203 0
-1375 -204 0
-1376 -205 0
-1377 -206 0
-1378 -207 0
-1379 -216 0
-1380 -217 0
-1381 -218 0
-1382 -219 0
-1383 -220 0
-1384 -221 0
-1385 -222 0
-1386 -223 0
-1387 -232 0
-1388 -233 0
-1389 -234 0
-1390 -235 0
-1391 -236 0
-1392 -237 0
-1393 -238 0
-1394 -239 0
-1395 -248 0
-1396 -249 0
-1397 -250 0
-1398 -251 0
-1399 -252 0
-1400 -253 0
-1401 -254 0
-1402 -255 0
-1403 -264 0
-1404 -265 0
-1405 -266 0
-1406 -267 0
-1407 -268 0
-1408 -269 0
-1409 -270 0
-1410 -271 0
-1411 -280 0
-1412 -281 0
-1413 -282 0
-1414 -283 0
-1415 -284 0
-1416 -285 0
-1417 -286 0
-1418 -287 0
-1419 -296 0
-1420 -297 0
-1421 -298 0
-1422 -299 0
-1423 -300 0
-1424 -301 0
-1425 -302 0
-1426 -303 0
-1427 -312 0
-1428 -313 0
-1429 -314 0
-1430 -315 0
-1431 -316 0
-1432 -317 0
-1433 -318 0
-1434 -319 0
-1435 -328 0
-1436 -329 0
-1437 -330 0
-1438 -331 0
-1439 -332 0
-1440 -333 0
-1441 -334 0
-1442 -335 0
-1443 -344 0
-1444 -345 0
-1445 -346 0
-1446 -347 0
-1447 -348 0
-1448 -349 0
-1449 -350 0
-1450 -351 0
-1451 -360 0
-1452 -361 0
-1453 -362 0
-1454 -363 0
-1455 -364 0
-1456 -365 0
-1457 -366 0
-1458 -367 0
-1459 -376 0
-1460 -377 0
-1461 -378 0
-1462 -379 0
-1463 -380 0
-1464 -381 0
-1465 -382 0
-1466 -383 0
-1467 -392 0
-1468 -393 0
-1469 -394 0
-1470 -395 0
-1471 -396 0
-1472 -397 0
-1473 -398 0
-1474 -399 0
-1475 -408 0
-1476 -409 0
-1477 -410 0
-1478 -411 0
-1479 -412 0
-1480 -413 0
-1481 -414 0
-1482 -415 0
-1483 -424 0
-1484 -425 0
-1485 -426 0
-1486 -427 0
-1487 -428 0
-1488 -429 0
-1489 -430 0
-1490 -431 0
-1491 -440 0
-1492 -441 0
-1493 -442 0
-1494 -443 0
-1495 -444 0
-1496 -445 0
-1497 -446 0
-1498 -447 0
-1499 -456 0
-1500 -457 0
-1501 -458 0
-1502 -459 0
-1503 -460 0
-1504 -461 0
-1505 -462 0
-1506 -463 0
-1507 -472 0
-1508 -473 0
-1509 -474 0
-1510 -475 0
-1511 -476 0
-1512 -477 0
-1513 -478 0
-1514 -479 0
-1515 -488 0
-1516 -489 0
-1517 -490 0
-1518 -491 0
-1519 -492 0
-1520 -493 0
-1521 -494 0
-1522 -495 0
-1523 -504 0
-1524 -505 0
-1525 -506 0
-1526 -507 0
-1527 -508 0
-1528 -509 0
-1529 -510 0
-1530 -511 0
1531 0
-1532 16 17 0
1532 -16 0
1532 -17 0
-1533 1532 18 0
1533 -1532 0
1533 -18 0
-1534 1533 19 0
1534 -1533 0
1534 -19 0
-1535 1534 20 0
1535 -1534 0
1535 -20 0
-1536 1535 21 0
1536 -1535 0
1536 -21 0
-1537 1536 22 0
1537 -1536 0
1537 -22 0
-1538 1537 23 0
1538 -1537 0
1538 -23 0
-1539 1538 24 0
1539 -1538 0
1539 -24 0
-1540 1539 25 0
1540 -1539 0
1540 -25 0
-1541 1540 26 0
1541 -1540 0
1541 -26 0
-1542 1541 27 0
1542 -1541 0
1542 -27 0
-1543 1542 28 0
1543 -1542 0
1543 -28 0
-1544 1543 29 0
1544 -1543 0
1544 -29 0
-1545 1544 30 0
1545 -1544 0
1545 -30 0
-1546 1545 31 0
1546 -1545 0
1546 -31 0
-1547 1546 48 0
1547 -1546 0
1547 -48 0
-1548 1547 49 0
1548 -1547 0
1548 -49 0
-1549 1548 50 0
1549 -1548 0
1549 -50 0
-1550 1549 51 0
1550 -1549 0
1550 -51 0
-1551 1550 52 0
1551 -1550 0
1551 -52 0
-1552 1551 53 0
1552 -1551 0
1552 -53 0
-1553 1552 54 0
1553 -1552 0
1553 -54 0
-1554 1553 55 0
1554 -1553 0
1554 -55 0
-1555 1554 56 0
1555 -1554 0
1555 -56 0
-1556 1555 57 0
1556 -1555 0
1556 -57 0
-1557 1556 58 0
1557 -1556 0
1557 -58 0
-1558 1557 59 0
1558 -1557 0
1558 -59 0
-1559 1558 60 0
1559 -1558 0
1559 -60 0
-1560 1559 61 0
1560 -1559 0
1560 -61 0
-1561 1560 62 0
1561 -1560 0
1561 -62 0
-1562 1561 63 0
1562 -1561 0
1562 -63 0
-1563 1562 80 0
1563 -1562 0
1563 -80 0
-1564 1563 81 0
1564 -1563 0
1564 -81 0
-1565 1564 82 0
1565 -1564 0
1565 -82 0
-1566 1565 83 0
1566 -1565 0
1566 -83 0
-1567 1566 84 0
1567 -1566 0
1567 -84 0
-1568 1567 85 0
1568 -1567 0
1568 -85 0
-1569 1568 86 0
1569 -1568 0
1569 -86 0
-1570 1569 87 0
1570 -1569 0
1570 -87 0
-1571 1570 88 0
1571 -1570 0
1571 -88 0
-1572 1571 89 0
1572 -1571 0
1572 -89 0
-1573 1572 90 0
1573 -1572 0
1573 -90 0
-1574 1573 91 0
1574 -1573 0
1574 -91 0
-1575 1574 92 0
1575 -1574 0
1575 -92 0
-1576 1575 93 0
1576 -1575 0
1576 -93 0
-1577 1576 94 0
1577 -1576 0
1577 -94 0
-1578 1577 95 0
1578 -1577 0
1578 -95 0
-1579 1578 112 0
1579 -1578 0
1579 -112 0
-1580 1579 113 0
1580 -1579 0
1580 -113 0
-1581 1580 114 0
1581 -1580 0
1581 -114 0
-1582 1581 115 0
1582 -1581 0
1582 -115 0
-1583 1582 116 0
1583 -1582 0
1583 -116 0
-1584 1583 117 0
1584 -1583 0
1584 -117 0
-1585 1584 118 0
1585 -1584 0
1585 -118 0
-1586 1585 119 0
1586 -1585 0
1586 -119 0
-1587 1586 120 0
1587 -1586 0
1587 -120 0
-1588 1587 121 0
1588 -1587 0
1588 -121 0
-1589 1588 122 0
1589 -1588 0
1589 -122 0
-1590 1589 123 0
1590 -1589 0
1590 -123 0
-1591 1590 124 0
1591 -1590 0
1591 -124 0
-1592 1591 125 0
1592 -1591 0
1592 -125 0
-1593 1592 126 0
1593 -1592 0
1593 -126 0
-1594 1593 127 0
1594 -1593 0
1594 -127 0
-1595 1594 144 0
1595 -1594 0
1595 -144 0
-1596 1595 145 0
1596 -1595 0
1596 -145 0
-1597 1596 146 0
1597 -1596 0
1597 -146 0
-1598 1597 147 0
1598 -1597 0
1598 -147 0
-1599 1598 148 0
1599 -1598 0
1599 -148 0
-1600 1599 149 0
1600 -1599 0
1600 -149 0
-1601 1600 150 0
1601 -1600 0
1601 -150 0
-1602 1601 151 0
1602 -1601 0
1602 -151 0
-1603 1602 152 0
1603 -1602 0
1603 -152 0
-1604 1603 153 0
1604 -1603 0
1604 -153 0
-1605 1604 154 0
1605 -1604 0
1605 -154 0
-1606 1605 155 0
1606 -1605 0
1606 -155 0
-1607 1606 156 0
1607 -1606 0
1607 -156 0
-1608 1607 157 0
1608 -1607 0
1608 -157 0
-1609 1608 158 0
1609 -1608 0
1609 -158 0
-1610 1609 159 0
1610 -1609 0
1610 -159 0
-1611 1610 176 0
1611 -1610 0
1611 -176 0
-1612 1611 177 0
1612 -1611 0
1612 -177 0
-1613 1612 178 0
1613 -1612 0
1613 -178 0
-1614 1613 179 0
1614 -1613 0
1614 -179 0
-1615 1614 180 0
1615 -1614 0
1615 -180 0
-1616 1615 181 0
1616 -1615 0
1616 -181 0
-1617 1616 182 0
1617 -1616 0
1617 -182 0
-1618 1617 183 0
1618 -1617 0
1618 -183 0
-1619 1618 184 0
1619 -1618 0
1619 -184 0
-1620 1619 185 0
1620 -1619 0
1620 -185 0
-1621 1620 186 0
1621 -1620 0
1621 -186 0
-1622 1621 187 0
1622 -1621 0
1622 -187 0
-1623 1622 188 0
1623 -1622 0
1623 -188 0
-1624 1623 189 0
1624 -1623 0
1624 -189 0
-1625 1624 190 0
1625 -1624 0
1625 -190 0
-1626 1625 191 0
1626 -1625 0
1626 -191 0
-1627 1626 208 0
1627 -1626 0
1627 -208 0
-1628 1627 209 0
1628 -1627 0
1628 -209 0
-1629 1628 210 0
1629 -1628 0
1629 -210 0
-1630 1629 211 0
1630 -1629 0
1630 -211 0
-1631 1630 212 0
1631 -1630 0
1631 -212 0
-1632 1631 213 0
1632 -1631 0
1632 -213 0
-1633 1632 214 0
1633 -1632 0
1633 -214 0
-1634 1633 215 0
1634 -1633 0
1634 -215 0
-1635 1634 216 0
1635 -1634 0
1635 -216 0
-1636 1635 217 0
1636 -1635 0
1636 -217 0
-1637 1636 218 0
1637 -1636 0
1637 -218 0
-1638 1637 219 0
1638 -1637 0
1638 -219 0
-1639 1638 220 0
1639 -1638 0
1639 -220 0
-1640 1639 221 0
1640 -1639 0
1640 -221 0
-1641 1640 222 0
1641 -1640 0
1641 -222 0
-1642 1641 223 0
1642 -1641 0
1642 -223 0
-1643 1642 240 0
1643 -1642 0
1643 -240 0
-1644 1643 241 0
1644 -1643 0
1644 -241 0
-1645 1644 242 0
1645 -1644 0
1645 -242 0
-1646 1645 243 0
1646 -1645 0
1646 -243 0
-1647 1646 244 0
1647 -1646 0
1647 -244 0
-1648 1647 245 0
1648 -1647 0
1648 -245 0
-1649 1648 246 0
1649 -1648 0
1649 -246 0
-1650 1649 247 0
1650 -1649 0
1650 -247 0
-1651 1650 248 0
1651 -1650 0
1651 -248 0
-1652 1651 249 0
1652 -1651 0
1652 -249 0
-1653 1652 250 0
1653 -1652 0
1653 -250 0
-1654 1653 251 0
1654 -1653 0
1654 -251 0
-1655 1654 252 0
1655 -1654 0
1655 -252 0
-1656 1655 253 0
1656 -1655 0
1656 -253 0
-1657 1656 254 0
1657 -1656 0
1657 -254 0
-1658 1657 255 0
1658 -1657 0
1658 -255 0
-1659 1658 272 0
1659 -1658 0
1659 -272 0
-1660 1659 273 0
1660 -1659 0
1660 -273 0
-1661 1660 274 0
1661 -1660 0
1661 -274 0
-1662 1661 275 0
1662 -1661 0
1662 -275 0
-1663 1662 276 0
1663 -1662 0
1663 -276 0
-1664 1663 277 0
1664 -1663 0
1664 -277 0
-1665 1664 278 0
1665 -1664 0
1665 -278 0
-1666 1665 279 0
1666 -1665 0
1666 -279 0
-1667 1666 280 0
1667 -1666 0
1667 -280 0
-1668 1667 281 0
1668 -1667 0
1668 -281 0
-1669 1668 282 0
1669 -1668 0
1669 -282 0
-1670 1669 283 0
1670 -1669 0
1670 -283 0
-1671 1670 284 0
1671 -1670 0
1671 -284 0
-1672 1671 285 0
1672 -1671 0
1672 -285 0
-1673 1672 286 0
1673 -1672 0
1673 -286 0
-1674 1673 287 0
1674 -1673 0
1674 -287 0
-1675 1674 304 0
1675 -1674 0
1675 -304 0
-1676 1675 305 0
1676 -1675 0
1676 -305 0
-1677 1676 306 0
1677 -1676 0
1677 -306 0
-1678 1677 307 0
1678 -1677 0
1678 -307 0
-1679 1678 308 0
1679 -1678 0
1679 -308 0
-1680 1679 309 0
1680 -1679 0
1680 -309 0
-1681 1680 310 0
1681 -1680 0
1681 -310 0
-1682 1681 311 0
1682 -1681 0
1682 -311 0
-1683 1682 312 0
1683 -1682 0
1683 -312 0
-1684 1683 313 0
1684 -1683 0
1684 -313 0
-1685 1684 314 0
1685 -1684 0
1685 -314 0
-1686 1685 315 0
1686 -1685 0
1686 -315 0
-1687 1686 316 0
1687 -1686 0
1687 -316 0
-1688 1687 317 0
1688 -1687 0
1688 -317 0
-1689 1688 318 0
1689 -1688 0
1689 -318 0
-1690 1689 319 0
1690 -1689 0
1690 -319 0
-1691 1690 336 0
1691 -1690 0
1691 -336 0
-1692 1691 337 0
1692 -1691 0
1692 -337 0
-1693 1692 338 0
1693 -1692 0
1693 -338 0
-1694 1693 339 0
1694 -1693 0
1694 -339 0
-1695 1694 340 0
1695 -1694 0
1695 -340 0
-1696 1695 341 0
1696 -1695 0
1696 -341 0
-1697 1696 342 0
1697 -1696 0
1697 -342 0
-1698 1697 343 0
1698 -1697 0
1698 -343 0
-1699 1698 344 0
1699 -1698 0
1699 -344 0
-1700 1699 345 0
1700 -1699 0
1700 -345 0
-1701 1700 346 0
1701 -1700 0
1701 -346 0
-1702 1701 347 0
1702 -1701 0
1702 -347 0
-1703 1702 348 0
1703 -1702 0
1703 -348 0
-1704 1703 349 0
1704 -1703 0
1704 -349 0
-1705 1704 350 0
1705 -1704 0
1705 -350 0
-1706 1705 351 0
1706 -1705 0
1706 -351 0
-1707 1706 368 0
1707 -1706 0
1707 -368 0
-1708 1707 369 0
1708 -1707 0
1708 -369 0
-1709 1708 370 0
1709 -1708 0
1709 -370 0
-1710 1709 371 0
1710 -1709 0
1710 -371 0
-1711 1710 372 0
1711 -1710 0
1711 -372 0
-1712 1711 373 0
1712 -1711 0
1712 -373 0
-1713 1712 374 0
1713 -1712 0
1713 -374 0
-1714 1713 375 0
1714 -1713 0
1714 -375 0
-1715 1714 376 0
1715 -1714 0
1715 -376 0
-1716 1715 377 0
1716 -1715 0
1716 -377 0
-1717 1716 378 0
1717 -1716 0
1717 -378 0
-1718 1717 379 0
1718 -1717 0
1718 -379 0
-1719 1718 380 0
1719 -1718 0
1719 -380 0
-1720 1719 381 0
1720 -1719 0
1720 -381 0
-1721 1720 382 0
1721 -1720 0
1721 -382 0
-1722 1721 383 0
1722 -1721 0
1722 -383 0
-1723 1722 400 0
1723 -1722 0
1723 -400 0
-1724 1723 401 0
1724 -1723 0
1724 -401 0
-1725 1724 402 0
1725 -1724 0
1725 -402 0
-1726 1725 403 0
1726 -1725 0
1726 -403 0
-1727 1726 404 0
1727 -1726 0
1727 -404 0
-1728 1727 405 0
1728 -1727 0
1728 -405 0
-1729 1728 406 0
1729 -1728 0
1729 -406 0
-1730 1729 407 0
1730 -1729 0
1730 -407 0
-1731 1730 408 0
1731 -1730 0
1731 -408 0
-1732 1731 409 0
1732 -1731 0
1732 -409 0
-1733 1732 410 0
1733 -1732 0
1733 -410 0
-1734 1733 411 0
1734 -1733 0
1734 -411 0
-1735 1734 412 0
1735 -1734 0
1735 -412 0
-1736 1735 413 0
1736 -1735 0
1736 -413 0
-1737 1736 414 0
1737 -1736 0
1737 -414 0
-1738 1737 415 0
1738 -1737 0
1738 -415 0
-1739 1738 432 0
1739 -1738 0
1739 -432 0
-1740 1739 433 0
1740 -1739 0
1740 -433 0
-1741 1740 434 0
1741 -1740 0
1741 -434 0
-1742 1741 435 0
1742 -1741 0
1742 -435 0
-1743 1742 436 0
1743 -1742 0
1743 -436 0
-1744 1743 437 0
1744 -1743 0
1744 -437 0
-1745 1744 438 0
1745 -1744 0
1745 -438 0
-1746 1745 439 0
1746 -1745 0
1746 -439 0
-1747 1746 440 0
1747 -1746 0
1747 -440 0
-1748 1747 441 0
1748 -1747 0
1748 -441 0
-1749 1748 442 0
1749 -1748 0
1749 -442 0
-1750 1749 443 0
1750 -1749 0
1750 -443 0
-1751 1750 444 0
1751 -1750 0
1751 -444 0
-1752 1751 445 0
1752 -1751 0
1752 -445 0
-1753 1752 446 0
1753 -1752 0
1753 -446 0
-1754 1753 447 0
1754 -1753 0
1754 -447 0
-1755 1754 464 0
1755 -1754 0
1755 -464 0
-1756 1755 465 0
1756 -1755 0
1756 -465 0
-1757 1756 466 0
1757 -1756 0
1757 -466 0
-1758 1757 467 0
1758 -1757 0
1758 -467 0
-1759 1758 468 0
1759 -1758 0
1759 -468 0
-1760 1759 469 0
1760 -1759 0
1760 -469 0
-1761 1760 470 0
1761 -1760 0
1761 -470 0
-1762 1761 471 0
1762 -1761 0
1762 -471 0
-1763 1762 472 0
1763 -1762 0
1763 -472 0
-1764 1763 473 0
1764 -1763 0
1764 -473 0
-1765 1764 474 0
1765 -1764 0
1765 -474 0
-1766 1765 475 0
1766 -1765 0
1766 -475 0
-1767 1766 476 0
1767 -1766 0
1767 -476 0
-1768 1767 477 0
1768 -1767 0
1768 -477 0
-1769 1768 478 0
1769 -1768 0
1769 -478 0
-1770 1769 479 0
1770 -1769 0
1770 -479 0
-1771 1770 496 0
1771 -1770 0
1771 -496 0
-1772 1771 497 0
1772 -1771 0
1772 -497 0
-1773 1772 498 0
1773 -1772 0
1773 -498 0
-1774 1773 499 0
1774 -1773 0
1774 -499 0
-1775 1774 500 0
1775 -1774 0
1775 -500 0
-1776 1775 501 0
1776 -1775 0
1776 -501 0
-1777 1776 502 0
1777 -1776 0
1777 -502 0
-1778 1777 503 0
1778 -1777 0
1778 -503 0
-1779 1778 504 0
1779 -1778 0
1779 -504 0
-1780 1779 505 0
1780 -1779 0
1780 -505 0
-1781 1780 506 0
1781 -1780 0
1781 -506 0
-1782 1781 507 0
1782 -1781 0
1782 -507 0
-1783 1782 508 0
1783 -1782 0
1783 -508 0
-1784 1783 509 0
1784 -1783 0
1784 -509 0
-1785 1784 510 0
1785 -1784 0
1785 -510 0
1785 511 0
-16 -17 0
-1532 -18 0
-1533 -19 0
-1534 -20 0
-1535 -21 0
-1536 -22 0
-1537 -23 0
-1538 -24 0
-1539 -25 0
-1540 -26 0
-1541 -27 0
-1542 -28 0
-1543 -29 0
-1544 -30 0
-1545 -31 0
-1546 -48 0
-1547 -49 0
-1548 -50 0
-1549 -51 0
-1550 -52 0
-1551 -53 0
-1552 -54 0
-1553 -55 0
-1554 -56 0
-1555 -57 0
-1556 -58 0
-1557 -59 0
-1558 -60 0
-1559 -61 0
-1560 -62 0
-1561 -63 0
-1562 -80 0
-1563 -81 0
-1564 -82 0
-1565 -83 0
-1566 -84 0
-1567 -85 0
-1568 -86 0
-1569 -87 0
-1570 -88 0
-1571 -89 0
-1572 -90 0
-1573 -91 0
-1574 -92 0
-1575 -93 0
-1576 -94 0
-1577 -95 0
-1578 -112 0
-1579 -113 0
-1580 -114 0
-1581 -115 0
-1582 -116 0
-1583 -117 0
-1584 -118 0
-1585 -119 0
-1586 -120 0
-1587 -121 0
-1588 -122 0
-1589 -123 0
-1590 -124 0
-1591 -125 0
-1592 -126 0
-1593 -127 0
-1594 -144 0
-1595 -145 0
-1596 -146 0
-1597 -147 0
-1598 -148 0
-1599 -149 0
-1600 -150 0
-1601 -151 0
-1602 -152 0
-1603 -153 0
-1604 -154 0
-1605 -155 0
-1606 -156 0
-1607 -157 0
-1608 -158 0
-1609 -159 0
-1610 -176 0
-1611 -177 0
-1612 -178 0
-1613 -179 0
-1614 -180 0
-1615 -181 0
-1616 -182 0
-1617 -183 0
-1618 -184 0
-1619 -185 0
-1620 -186 0
-1621 -187 0
-1622 -188 0
-1623 -189 0
-1624 -190 0
-1625 -191 0
-1626 -208 0
-1627 -209 0
-1628 -210 0
-1629 -211 0
-1630 -212 0
-1631 -213 0
-1632 -214 0
-1633 -215 0
-1634 -216 0
-1635 -217 0
-1636 -218 0
-1637 -219 0
-1638 -220 0
-1639 -221 0
-1640 -222 0
-1641 -223 0
-1642 -240 0
-1643 -241 0
-1644 -242 0
-1645 -243 0
-1646 -244 0
-1647 -245 0
-1648 -246 0
-1649 -247 0
-1650 -248 0
-1651 -249 0
-1652 -250 0
-1653 -251 0
-1654 -252 0
-1655 -253 0
-1656 -254 0
-1657 -255 0
-1658 -272 0
-1659 -273 0
-1660 -274 0
-1661 -275 0
-1662 -276 0
-1663 -277 0
-1664 -278 0
-1665 -279 0
-1666 -280 0
-1667 -281 0
-1668 -282 0
-1669 -283 0
-1670 -284 0
-1671 -285 0
-1672 -286 0
-1673 -287 0
-1674 -304 0
-1675 -305 0
-1676 -306 0
-1677 -307 0
-1678 -308 0
-1679 -309 0
-1680 -310 0
-1681 -311 0
-1682 -312 0
-1683 -313 0
-1684 -314 0
-1685 -315 0
-1686 -316 0
-1687 -317 0
-1688 -318 0
-1689 -319 0
-1690 -336 0
-1691 -337 0
-1692 -338 0
-1693 -339 0
-1694 -340 0
-1695 -341 0
-1696 -342 0
-1697 -343 0
-1698 -344 0
-1699 -345 0
-1700 -346 0
-1701 -347 0
-1702 -348 0
-1703 -349 0
-1704 -350 0
-1705 -351 0
-1706 -368 0
-1707 -369 0
-1708 -370 0
-1709 -371 0
-1710 -372 0
-1711 -373 0
-1712 -374 0
-1713 -375 0
-1714 -376 0
-1715 -377 0
-1716 -378 0
-1717 -379 0
-1718 -380 0
-1719 -381 0
-1720 -382 0
-1721 -383 0
-1722 -400 0
-1723 -401 0
-1724 -402 0
-1725 -403 0
-1726 -404 0
-1727 -405 0
-1728 -406 0
-1729 -407 0
-1730 -408 0
-1731 -409 0
-1732 -410 0
-1733 -411 0
-1734 -412 0
-1735 -413 0
-1736 -414 0
-1737 -415 0
-1738 -432 0
-1739 -433 0
-1740 -434 0
-1741 -435 0
-1742 -436 0
-1743 -437 0
-1744 -438 0
-1745 -439 0
-1746 -440 0
-1747 -441 0
-1748 -442 0
-1749 -443 0
-1750 -444 0
-1751 -445 0
-1752 -446 0
-1753 -447 0
-1754 -464 0
-1755 -465 0
-1756 -466 0
-1757 -467 0
-1758 -468 0
-1759 -469 0
-1760 -470 0
-1761 -471 0
-1762 -472 0
-1763 -473 0
-1764 -474 0
-1765 -475 0
-1766 -476 0
-1767 -477 0
-1768 -478 0
-1769 -479 0
-1770 -496 0
-1771 -497 0
-1772 -498 0
-1773 -499 0
-1774 -500 0
-1775 -501 0
-1776 -502 0
-1777 -503 0
-1778 -504 0
-1779 -505 0
-1780 -506 0
-1781 -507 0
-1782 -508 0
-1783 -509 0
-1784 -510 0
-1785 -511 0
1786 0
-1787 32 33 0
1787 -32 0
1787 -33 0
-1788 1787 34 0
1788 -1787 0
1788 -34 0
-1789 1788 35 0
1789 -1788 0
1789 -35 0
-1790 1789 36 0
1790 -1789 0
1790 -36 0
-1791 1790 37 0
1791 -1790 0
1791 -37 0
-1792 1791 38 0
1792 -1791 0
1792 -38 0
-1793 1792 39 0
1793 -1792 0
1793 -39 0
-1794 1793 40 0
1794 -1793 0
1794 -40 0
-1795 1794 41 0
1795 -1794 0
1795 -41 0
-1796 1795 42 0
1796 -1795 0
1796 -42 0
-1797 1796 43 0
1797 -1796 0
1797 -43 0
-1798 1797 44 0
1798 -1797 0
1798 -44 0
-1799 1798 45 0
1799 -1798 0
1799 -45 0
-1800 1799 46 0
1800 -1799 0
1800 -46 0
-1801 1800 47 0
1801 -1800 0
1801 -47 0
-1802 1801 48 0
1802 -1801 0
1802 -48 0
-1803 1802 49 0
1803 -1802 0
1803 -49 0
-1804 1803 50 0
1804 -1803 0
1804 -50 0
-1805 1804 51 0
1805 -1804 0
1805 -51 0
-1806 1805 52 0
1806 -1805 0
1806 -52 0
-1807 1806 53 0
1807 -1806 0
1807 -53 0
-1808 1807 54 0
1808 -1807 0
1808 -54 0
-1809 1808 55 0
1809 -1808 0
1809 -55 0
-1810 1809 56 0
1810 -1809 0
1810 -56 0
-1811 1810 57 0
1811 -1810 0
1811 -57 0
-1812 1811 58 0
1812 -1811 0
1812 -58 0
-1813 1812 59 0
1813 -1812 0
1813 -59 0
-1814 1813 60 0
1814 -1813 0
1814 -60 0
-1815 1814 61 0
1815 -1814 0
1815 -61 0
-1816 1815 62 0
1816 -1815 0
1816 -62 0
-1817 1816 63 0
1817 -1816 0
1817 -63 0
-1818 1817 96 0
1818 -1817 0
1818 -96 0
-1819 1818 97 0
1819 -1818 0
1819 -97 0
-1820 1819 98 0
1820 -1819 0
1820 -98 0
-1821 1820 99 0
1821 -1820 0
1821 -99 0
-1822 1821 100 0
1822 -1821 0
1822 -100 0
-1823 1822 101 0
1823 -1822 0
1823 -101 0
-1824 1823 102 0
1824 -1823 0
1824 -102 0
-1825 1824 103 0
1825 -1824 0
1825 -103 0
-1826 1825 104 0
1826 -1825 0
1826 -104 0
-1827 1826 105 0
1827 -1826 0
1827 -105 0
-1828 1827 106 0
1828 -1827 0
1828 -106 0
-1829 1828 107 0
1829 -1828 0
1829 -107 0
-1830 1829 108 0
1830 -1829 0
1830 -108 0
-1831 1830 109 0
1831 -1830 0
1831 -109 0
-1832 1831 110 0
1832 -1831 0
1832 -110 0
-1833 1832 111 0
1833 -1832 0
1833 -111 0
-1834 1833 112 0
1834 -1833 0
1834 -112 0
-1835 1834 113 0
1835 -1834 0
1835 -113 0
-1836 1835 114 0
1836 -1835 0
1836 -114 0
-1837 1836 115 0
1837 -1836 0
1837 -115 0
-1838 1837 116 0
1838 -1837 0
1838 -116 0
-1839 1838 117 0
1839 -1838 0
1839 -117 0
-1840 1839 118 0
1840 -1839 0
1840 -118 0
-1841 1840 119 0
1841 -1840 0
1841 -119 0
-1842 1841 120 0
1842 -1841 0
1842 -120 0
-1843 1842 121 0
1843 -1842 0
1843 -121 0
-1844 1843 122 0
1844 -1843 0
1844 -122 0
-1845 1844 123 0
1845 -1844 0
1845 -123 0
-1846 1845 124 0
1846 -1845 0
1846 -124 0
-1847 1846 125 0
1847 -1846 0
1847 -125 0
-1848 1847 126 0
1848 -1847 0
1848 -126 0
-1849 1848 127 0
1849 -1848 0
1849 -127 0
-1850 1849 160 0
1850 -1849 0
1850 -160 0
-1851 1850 161 0
1851 -1850 0
1851 -161 0
-1852 1851 162 0
1852 -1851 0
1852 -162 0
-1853 1852 163 0
1853 -1852 0
1853 -163 0
-1854 1853 164 0
1854 -1853 0
1854 -164 0
-1855 1854 165 0
1855 -1854 0
1855 -165 0
-1856 1855 166 0
1856 -1855 0
1856 -166 0
-1857 1856 167 0
1857 -1856 0
1857 -167 0
-1858 1857 168 0
1858 -1857 0
1858 -168 0
-1859 1858 169 0
1859 -1858 0
1859 -169 0
-1860 1859 170 0
1860 -1859 0
1860 -170 0
-1861 1860 171 0
1861 -1860 0
1861 -171 0
-1862 1861 172 0
1862 -1861 0
1862 -172 0
-1863 1862 173 0
1863 -1862 0
1863 -173 0
-1864 1863 174 0
1864 -1863 0
1864 -174 0
-1865 1864 175 0
1865 -1864 0
1865 -175 0
-1866 1865 176 0
1866 -1865 0
1866 -176 0
-1867 1866 177 0
1867 -1866 0
1867 -177 0
-1868 1867 178 0
1868 -1867 0
1868 -178 0
-1869 1868 179 0
1869 -1868 0
1869 -179 0
-1870 1869 180 0
1870 -1869 0
1870 -180 0
-1871 1870 181 0
1871 -1870 0
1871 -181 0
-1872 1871 182 0
1872 -1871 0
1872 -182 0
-1873 1872 183 0
1873 -1872 0
1873 -183 0
-1874 1873 184 0
1874 -1873 0
1874 -184 0
-1875 1874 185 0
1875 -1874 0
1875 -185 0
-1876 1875 186 0
1876 -1875 0
1876 -186 0
-1877 1876 187 0
1877 -1876 0
1877 -187 0
-1878 1877 188 0
1878 -1877 0
1878 -188 0
-1879 1878 189 0
1879 -1878 0
1879 -189 0
-1880 1879 190 0
1880 -1879 0
1880 -190 0
-1881 1880 191 0
1881 -1880 0
1881 -191 0
-1882 1881 224 0
1882 -1881 0
1882 -224 0
-1883 1882 225 0
1883 -1882 0
1883 -225 0
-1884 1883 226 0
1884 -1883 0
1884 -226 0
-1885 1884 227 0
1885 -1884 0
1885 -227 0
-1886 1885 228 0
1886 -1885 0
1886 -228 0
-1887 1886 229 0
1887 -1886 0
1887 -229 0
-1888 1887 230 0
1888 -1887 0
1888 -230 0
-1889 1888 231 0
1889 -1888 0
1889 -231 0
-1890 1889 232 0
1890 -1889 0
1890 -232 0
-1891 1890 233 0
1891 -1890 0
1891 -233 0
-1892 1891 234 0
1892 -1891 0
1892 -234 0
-1893 1892 235 0
1893 -1892 0
1893 -235 0
-1894 1893 236 0
1894 -1893 0
1894 -236 0
-1895 1894 237 0
1895 -1894 0
1895 -237 0
-1896 1895 238 0
1896 -1895 0
1896 -238 0
-1897 1896 239 0
1897 -1896 0
1897 -239 0
-1898 1897 240 0
1898 -1897 0
1898 -240 0
-1899 1898 241 0
1899 -1898 0
1899 -241 0
-1900 1899 242 0
1900 -1899 0
1900 -242 0
-1901 1900 243 0
1901 -1900 0
1901 -243 0
-1902 1901 244 0
1902 -1901 0
1902 -244 0
-1903 1902 245 0
1903 -1902 0
1903 -245 0
-1904 1903 246 0
1904 -1903 0
1904 -246 0
-1905 1904 247 0
1905 -1904 0
1905 -247 0
-1906 1905 248 0
1906 -1905 0
1906 -248 0
-1907 1906 249 0
1907 -1906 0
1907 -249 0
-1908 1907 250 0
1908 -1907 0
1908 -250 0
-1909 1908 251 0
1909 -1908 0
1909 -251 0
-1910 1909 252 0
1910 -1909 0
1910 -252 0
-1911 1910 253 0
1911 -1910 0
1911 -253 0
-1912 1911 254 0
1912 -1911 0
1912 -254 0
-1913 1912 255 0
1913 -1912 0
1913 -255 0
-1914 1913 288 0
1914 -1913 0
1914 -288 0
-1915 1914 289 0
1915 -1914 0
1915 -289 0
-1916 1915 290 0
1916 -1915 0
1916 -290 0
-1917 1916 291 0
1917 -1916 0
1917 -291 0
-1918 1917 292 0
1918 -1917 0
1918 -292 0
-1919 1918 293 0
1919 -1918 0
1919 -293 0
-1920 1919 294 0
1920 -1919 0
1920 -294 0
-1921 1920 295 0
1921 -1920 0
1921 -295 0
-1922 1921 296 0
1922 -1921 0
1922 -296 0
-1923 1922 297 0
1923 -1922 0
1923 -297 0
-1924 1923 298 0
1924 -1923 0
1924 -298 0
-1925 1924 299 0
1925 -1924 0
1925 -299 0
-1926 1925 300 0
1926 -1925 0
1926 -300 0
-1927 1926 301 0
1927 -1926 0
1927 -301 0
-1928 1927 302 0
1928 -1927 0
1928 -302 0
-1929 1928 303 0
1929 -1928 0
1929 -303 0
-1930 1929 304 0
1930 -1929 0
1930 -304 0
-1931 1930 305 0
1931 -1930 0
1931 -305 0
-1932 1931 306 0
1932 -1931 0
1932 -306 0
-1933 1932 307 0
1933 -1932 0
1933 -307 0
-1934 1933 308 0
1934 -1933 0
1934 -308 0
-1935 1934 309 0
1935 -1934 0
1935 -309 0
-1936 1935 310 0
1936 -1935 0
1936 -310 0
-1937 1936 311 0
1937 -1936 0
1937 -311 0
-1938 1937 312 0
1938 -1937 0
1938 -312 0
-1939 1938 313 0
1939 -1938 0
1939 -313 0
-1940 1939 314 0
1940 -1939 0
1940 -314 0
-1941 1940 315 0
1941 -1940 0
1941 -315 0
-1942 1941 316 0
1942 -1941 0
1942 -316 0
-1943 1942 317 0
1943 -1942 0
1943 -317 0
-1944 1943 318 0
1944 -1943 0
1944 -318 0
-1945 1944 319 0
1945 -1944 0
1945 -319 0
-1946 1945 352 0
1946 -1945 0
1946 -352 0
-1947 1946 353 0
1947 -1946 0
1947 -353 0
-1948 1947 354 0
1948 -1947 0
1948 -354 0
-1949 1948 355 0
1949 -1948 0
1949 -355 0
-1950 1949 356 0
1950 -1949 0
1950 -356 0
-1951 1950 357 0
1951 -1950 0
1951 -357 0
-1952 1951 358 0
1952 -1951 0
1952 -358 0
-1953 1952 359 0
1953 -1952 0
1953 -359 0
-1954 1953 360 0
1954 -1953 0
1954 -360 0
-1955 1954 361 0
1955 -1954 0
1955 -361 0
-1956 1955 362 0
1956 -1955 0
1956 -362 0
-1957 1956 363 0
1957 -1956 0
1957 -363 0
-1958 1957 364 0
1958 -1957 0
1958 -364 0
-1959 1958 365 0
1959 -1958 0
1959 -365 0
-1960 1959 366 0
1960 -1959 0
1960 -366 0
-1961 1960 367 0
1961 -1960 0
1961 -367 0
-1962 1961 368 0
1962 -1961 0
1962 -368 0
-1963 1962 369 0
1963 -1962 0
1963 -369 0
-1964 1963 370 0
1964 -1963 0
1964 -370 0
-1965 1964 371 0
1965 -1964 0
1965 -371 0
-1966 1965 372 0
1966 -1965 0
1966 -372 0
-1967 1966 373 0
1967 -1966 0
1967 -373 0
-1968 1967 374 0
1968 -1967 0
1968 -374 0
-1969 1968 375 0
1969 -1968 0
1969 -375 0
-1970 1969 376 0
1970 -1969 0
1970 -376 0
-1971 1970 377 0
1971 -1970 0
1971 -377 0
-1972 1971 378 0
1972 -1971 0
1972 -378 0
-1973 1972 379 0
1973 -1972 0
1973 -379 0
-1974 1973 380 0
1974 -1973 0
1974 -380 0
-1975 1974 381 0
1975 -1974 0
1975 -381 0
-1976 1975 382 0
1976 -1975 0
1976 -382 0
-1977 1976 383 0
1977 -1976 0
1977 -383 0
-1978 1977 416 0
1978 -1977 0
1978 -416 0
-1979 1978 417 0
1979 -1978 0
1979 -417 0
-1980 1979 418 0
1980 -1979 0
1980 -418 0
-1981 1980 419 0
1981 -1980 0
1981 -419 0
-1982 1981 420 0
1982 -1981 0
1982 -420 0
-1983 1982 421 0
1983 -1982 0
1983 -421 0
-1984 1983 422 0
1984 -1983 0
1984 -422 0
-1985 1984 423 0
1985 -1984 0
1985 -423 0
-1986 1985 424 0
1986 -1985 0
1986 -424 0
-1987 1986 425 0
1987 -1986 0
1987 -425 0
-1988 1987 426 0
1988 -1987 0
1988 -426 0
-1989 1988 427 0
1989 -1988 0
1989 -427 0
-1990 1989 428 0
1990 -1989 0
1990 -428 0
-1991 1990 429 0
1991 -1990 0
1991 -429 0
-1992 1991 430 0
1992 -1991 0
1992 -430 0
-1993 1992 431 0
1993 -1992 0
1993 -431 0
-1994 1993 432 0
1994 -1993 0
1994 -432 0
-1995 1994 433 0
1995 -1994 0
1995 -433 0
-1996 1995 434 0
1996 -1995 0
1996 -434 0
-1997 1996 435 0
1997 -1996 0
1997 -435 0
-1998 1997 436 0
1998 -1997 0
1998 -436 0
-1999 1998 437 0
1999 -1998 0
1999 -437 0
-2000 1999 438 0
2000 -1999 0
2000 -438 0
-2001 2000 439 0
2001 -2000 0
2001 -439 0
-2002 2001 440 0
2002 -2001 0
2002 -440 0
-2003 2002 441 0
2003 -2002 0
2003 -441 0
-2004 2003 442 0
2004 -2003 0
2004 -442 0
-2005 2004 443 0
2005 -2004 0
2005 -443 0
-2006 2005 444 0
2006 -2005 0
2006 -444 0
-2007 2006 445 0
2007 -2006 0
2007 -445 0
-2008 2007 446 0
2008 -2007 0
2008 -446 0
-2009 2008 447 0
2009 -2008 0
2009 -447 0
-2010 2009 480 0
2010 -2009 0
2010 -480 0
-2011 2010 481 0
2011 -2010 0
2011 -481 0
-2012 2011 482 0
2012 -2011 0
2012 -482 0
-2013 2012 483 0
2013 -2012 0
2013 -483 0
-2014 2013 484 0
2014 -2013 0
2014 -484 0
-2015 2014 485 0
2015 -2014 0
2015 -485 0
-2016 2015 486 0
2016 -2015 0
2016 -486 0
-2017 2016 487 0
2017 -2016 0
2017 -487 0
-2018 2017 488 0
2018 -2017 0
2018 -488 0
-2019 2018 489 0
2019 -2018 0
2019 -489 0
-2020 2019 490 0
2020 -2019 0
2020 -490 0
-2021 2020 491 0
2021 -2020 0
2021 -491 0
-2022 2021 492 0
2022 -2021 0
2022 -492 0
-2023 2022 493 0
2023 -2022 0
2023 -493 0
-2024 2023 494 0
2024 -2023 0
2024 -494 0
-2025 2024 495 0
2025 -2024 0
2025 -495 0
-2026 2025 496 0
2026 -2025 0
2026 -496 0
-2027 2026 497 0
2027 -2026 0
2027 -497 0
-2028 2027 498 0
2028 -2027 0
2028 -498 0
-2029 2028 499 0
2029 -2028 0
2029 -499 0
-2030 2029 500 0
2030 -2029 0
2030 -500 0
-2031 2030 501 0
2031 -2030 0
2031 -501 0
-2032 2031 502 0
2032 -2031 0
2032 -502 0
-2033 2032 503 0
2033 -2032 0
2033 -503 0
-2034 2033 504 0
2034 -2033 0
2034 -504 0
-2035 2034 505 0
2035 -2034 0
2035 -505 0
-2036 2035 506 0
2036 -2035 0
2036 -506 0
-2037 2036 507 0
2037 -2036 0
2037 -507 0
-2038 2037 508 0
2038 -2037 0
2038 -508 0
-2039 2038 509 0
2039 -2038 0
2039 -509 0
-2040 2039 510 0
2040 -2039 0
2040 -510 0
2040 511 0
-32 -33 0
-1787 -34 0
-1788 -35 0
-1789 -36 0
-1790 -37 0
-1791 -38 0
-1792 -39 0
-1793 -40 0
-1794 -41 0
-1795 -42 0
-1796 -43 0
-1797 -44 0
-1798 -45 0
-1799 -46 0
-1800 -47 0
-1801 -48 0
-1802 -49 0
-1803 -50 0
-1804 -51 0
-1805 -52 0
-1806 -53 0
-1807 -54 0
-1808 -55 0
-1809 -56 0
-1810 -57 0
-1811 -58 0
-1812 -59 0
-1813 -60 0
-1814 -61 0
-1815 -62 0
-1816 -63 0
-1817 -96 0
-1818 -97 0
-1819 -98 0
-1820 -99 0
-1821 -100 0
-1822 -101 0
-1823 -102 0
-1824 -103 0
-1825 -104 0
-1826 -105 0
-1827 -106 0
-1828 -107 0
-1829 -108 0
-1830 -109 0
-1831 -110 0
-1832 -111 0
-1833 -112 0
-1834 -113 0
-1835 -114 0
-1836 -115 0
-1837 -116 0
-1838 -117 0
-1839 -118 0
-1840 -119 0
-1841 -120 0
-1842 -121 0
-1843 -122 0
-1844 -123 0
-1845 -124 0
-1846 -125 0
-1847 -126 0
-1848 -127 0
-1849 -160 0
-1850 -161 0
-1851 -162 0
-1852 -163 0
-1853 -164 0
-1854 -165 0
-1855 -166 0
-1856 -167 0
-1857 -168 0
-1858 -169 0
-1859 -170 0
-1860 -171 0
-1861 -172 0
-1862 -173 0
-1863 -174 0
-1864 -175 0
-1865 -176 0
-1866 -177 0
-1867 -178 0
-1868 -179 0
-1869 -180 0
-1870 -181 0
-1871 -182 0
-1872 -183 0
-1873 -184 0
-1874 -185 0
-1875 -186 0
-1876 -187 0
-1877 -188 0
-1878 -189 0
-1879 -190 0
-1880 -191 0
-1881 -224 0
-1882 -225 0
-1883 -226 0
-1884 -227 0
-1885 -228 0
-1886 -229 0
-1887 -230 0
-1888 -231 0
-1889 -232 0
-1890 -233 0
-1891 -234 0
-1892 -235 0
-1893 -236 0
-1894 -237 0
-1895 -238 0
-1896 -239 0
-1897 -240 0
-1898 -241 0
-1899 -242 0
-1900 -243 0
-1901 -244 0
-1902 -245 0
-1903 -246 0
-1904 -247 0
-1905 -248 0
-1906 -249 0
-1907 -250 0
-1908 -251 0
-1909 -252 0
-1910 -253 0
-1911 -254 0
-1912 -255 0
-1913 -288 0
-1914 -289 0
-1915 -290 0
-1916 -291 0
-1917 -292 0
-1918 -293 0
-1919 -294 0
-1920 -295 0
-1921 -296 0
-1922 -297 0
-1923 -298 0
-1924 -299 0
-1925 -300 0
-1926 -301 0
-1927 -302 0
-1928 -303 0
-1929 -304 0
-1930 -305 0
-1931 -306 0
-1932 -307 0
-1933 -308 0
-1934 -309 0
-1935 -310 0
-1936 -311 0
-1937 -312 0
-1938 -313 0
-1939 -314 0
-1940 -315 0
-1941 -316 0
-1942 -317 0
-1943 -318 0
-1944 -319 0
-1945 -352 0
-1946 -353 0
-1947 -354 0
-1948 -355 0
-1949 -356 0
-1950 -357 0
-1951 -358 0
-1952 -359 0
-1953 -360 0
-1954 -361 0
-1955 -362 0
-1956 -363 0
-1957 -364 0
-1958 -365 0
-1959 -366 0
-1960 -367 0
-1961 -368 0
-1962 -369 0
-1963 -370 0
-1964 -371 0
-1965 -372 0
-1966 -373 0
-1967 -374 0
-1968 -375 0
-1969 -376 0
-1970 -377 0
-1971 -378 0
-1972 -379 0
-1973 -380 0
-1974 -381 0
-1975 -382 0
-1976 -383 0
-1977 -416 0
-1978 -417 0
-1979 -418 0
-1980 -419 0
-1981 -420 0
-1982 -421 0
-1983 -422 0
-1984 -423 0
-1985 -424 0
-1986 -425 0
-1987 -426 0
-1988 -427 0
-1989 -428 0
-1990 -429 0
-1991 -430 0
-1992 -431 0
-1993 -432 0
-1994 -433 0
-1995 -434 0
-1996 -435 0
-1997 -436 0
-1998 -437 0
-1999 -438 0
-2000 -439 0
-2001 -440 0
-2002 -441 0
-2003 -442 0
-2004 -443 0
-2005 -444 0
-2006 -445 0
-2007 -446 0
-2008 -447 0
-2009 -480 0
-2010 -481 0
-2011 -482 0
-2012 -483 0
-2013 -484 0
-2014 -485 0
-2015 -486 0
-2016 -487 0
-2017 -488 0
-2018 -489 0
-2019 -490 0
-2020 -491 0
-2021 -492 0
-2022 -493 0
-2023 -494 0
-2024 -495 0
-2025 -496 0
-2026 -497 0
-2027 -498 0
-2028 -499 0
-2029 -500 0
-2030 -501 0
-2031 -502 0
-2032 -503 0
-2033 -504 0
-2034 -505 0
-2035 -506 0
-2036 -507 0
-2037 -508 0
-2038 -509 0
-2039 -510 0
-2040 -511 0
2041 0
-2042 64 65 0
2042 -64 0
2042 -65 0
-2043 2042 66 0
2043 -2042 0
2043 -66 0
-2044 2043 67 0
2044 -2043 0
2044 -67 0
-2045 2044 68 0
2045 -2044 0
2045 -68 0
-2046 2045 69 0
2046 -2045 0
2046 -69 0
-2047 2046 70 0
2047 -2046 0
2047 -70 0
-2048 2047 71 0
2048 -2047 0
2048 -71 0
-2049 2048 72 0
2049 -2048 0
2049 -72 0
-2050 2049 73 0
2050 -2049 0
2050 -73 0
-2051 2050 74 0
2051 -2050 0
2051 -74 0
-2052 2051 75 0
2052 -2051 0
2052 -75 0
-2053 2052 76 0
2053 -2052 0
2053 -76 0
-2054 2053 77 0
2054 -2053 0
2054 -77 0
-2055 2054 78 0
2055 -2054 0
2055 -78 0
-2056 2055 79 0
2056 -2055 0
2056 -79 0
-2057 2056 80 0
2057 -2056 0
2057 -80 0
-2058 2057 81 0
2058 -2057 0
2058 -81 0
-2059 2058 82 0
2059 -2058 0
2059 -82 0
-2060 2059 83 0
2060 -2059 0
2060 -83 0
-2061 2060 84 0
2061 -2060 0
2061 -84 0
-2062 2061 85 0
2062 -2061 0
2062 -85 0
-2063 2062 86 0
2063 -2062 0
2063 -86 0
-2064 2063 87 0
2064 -2063 0
2064 -87 0
-2065 2064 88 0
2065 -2064 0
2065 -88 0
-2066 2065 89 0
2066 -2065 0
2066 -89 0
-2067 2066 90 0
2067 -2066 0
2067 -90 0
-2068 2067 91 0
2068 -2067 0
2068 -91 0
-2069 2068 92 0
2069 -2068 0
2069 -92 0
-2070 2069 93 0
2070 -2069 0
2070 -93 0
-2071 2070 94 0
2071 -2070 0
2071 -94 0
-2072 2071 95 0
2072 -2071 0
2072 -95 0
-2073 2072 96 0
2073 -2072 0
2073 -96 0
-2074 2073 97 0
2074 -2073 0
2074 -97 0
-2075 2074 98 0
2075 -2074 0
2075 -98 0
-2076 2075 99 0
2076 -2075 0
2076 -99 0
-2077 2076 100 0
2077 -2076 0
2077 -100 0
-2078 2077 101 0
2078 -2077 0
2078 -101 0
-2079 2078 102 0
2079 -2078 0
2079 -102 0
-2080 2079 103 0
2080 -2079 0
2080 -103 0
-2081 2080 104 0
2081 -2080 0
2081 -104 0
-2082 2081 105 0
2082 -2081 0
2082 -105 0
-2083 2082 106 0
2083 -2082 0
2083 -106 0
-2084 2083 107 0
2084 -2083 0
2084 -107 0
-2085 2084 108 0
2085 -2084 0
2085 -108 0
-2086 2085 109 0
2086 -2085 0
2086 -109 0
-2087 2086 110 0
2087 -2086 0
2087 -110 0
-2088 2087 111 0
2088 -2087 0
2088 -111 0
-2089 2088 112 0
2089 -2088 0
2089 -112 0
-2090 2089 113 0
2090 -2089 0
2090 -113 0
-2091 2090 114 0
2091 -2090 0
2091 -114 0
-2092 2091 115 0
2092 -2091 0
2092 -115 0
-2093 2092 116 0
2093 -2092 0
2093 -116 0
-2094 2093 117 0
2094 -2093 0
2094 -117 0
-2095 2094 118 0
2095 -2094 0
2095 -118 0
-2096 2095 119 0
2096 -2095 0
2096 -119 0
-2097 2096 120 0
2097 -2096 0
2097 -120 0
-2098 2097 121 0
2098 -2097 0
2098 -121 0
-2099 2098 122 0
2099 -2098 0
2099 -122 0
-2100 2099 123 0
2100 -2099 0
2100 -123 0
-2101 2100 124 0
2101 -2100 0
2101 -124 0
-2102 2101 125 0
2102 -2101 0
2102 -125 0
-2103 2102 126 0
2103 -2102 0
2103 -126 0
-2104 2103 127 0
2104 -2103 0
2104 -127 0
-2105 2104 192 0
2105 -2104 0
2105 -192 0
-2106 2105 193 0
2106 -2105 0
2106 -193 0
-2107 2106 194 0
2107 -2106 0
2107 -194 0
-2108 2107 195 0
2108 -2107 0
2108 -195 0
-2109 2108 196 0
2109 -2108 0
2109 -196 0
-2110 2109 197 0
2110 -2109 0
2110 -197 0
-2111 2110 198 0
2111 -2110 0
2111 -198 0
-2112 2111 199 0
2112 -2111 0
2112 -199 0
-2113 2112 200 0
2113 -2112 0
2113 -200 0
-2114 2113 201 0
2114 -2113 0
2114 -201 0
-2115 2114 202 0
2115 -2114 0
2115 -202 0
-2116 2115 203 0
2116 -2115 0
2116 -203 0
-2117 2116 204 0
2117 -2116 0
2117 -204 0
-2118 2117 205 0
2118 -2117 0
2118 -205 0
-2119 2118 206 0
2119 -2118 0
2119 -206 0
-2120 2119 207 0
2120 -2119 0
2120 -207 0
-2121 2120 208 0
2121 -2120 0
2121 -208 0
-2122 2121 209 0
2122 -2121 0
2122 -209 0
-2123 2122 210 0
2123 -2122 0
2123 -210 0
-2124 2123 211 0
2124 -2123 0
2124 -211 0
-2125 2124 212 0
2125 -2124 0
2125 -212 0
-2126 2125 213 0
2126 -2125 0
2126 -213 0
-2127 2126 214 0
2127 -2126 0
2127 -214 0
-2128 2127 215 0
2128 -2127 0
2128 -215 0
-2129 2128 216 0
2129 -2128 0
2129 -216 0
-2130 2129 217 0
2130 -2129 0
2130 -217 0
-2131 2130 218 0
2131 -2130 0
2131 -218 0
-2132 2131 219 0
2132 -2131 0
2132 -219 0
-2133 2132 220 0
2133 -2132 0
2133 -220 0
-2134 2133 221 0
2134 -2133 0
2134 -221 0
-2135 2134 222 0
2135 -2134 0
2135 -222 0
-2136 2135 223 0
2136 -2135 0
2136 -223 0
-2137 2136 224 0
2137 -2136 0
2137 -224 0
-2138 2137 225 0
2138 -2137 0
2138 -225 0
-2139 2138 226 0
2139 -2138 0
2139 -226 0
-2140 2139 227 0
2140 -2139 0
2140 -227 0
-2141 2140 228 0
2141 -2140 0
2141 -228 0
-2142 2141 229 0
2142 -2141 0
2142 -229 0
-2143 2142 230 0
2143 -2142 0
2143 -230 0
-2144 2143 231 0
2144 -2143 0
2144 -231 0
-2145 2144 232 0
2145 -2144 0
2145 -232 0
-2146 2145 233 0
2146 -2145 0
2146 -233 0
-2147 2146 234 0
2147 -2146 0
2147 -234 0
-2148 2147 235 0
2148 -2147 0
2148 -235 0
-2149 2148 236 0
2149 -2148 0
2149 -236 0
-2150 2149 237 0
2150 -2149 0
2150 -237 0
-2151 2150 238 0
2151 -2150 0
2151 -238 0
-2152 2151 239 0
2152 -2151 0
2152 -239 0
-2153 2152 240 0
2153 -2152 0
2153 -240 0
-2154 2153 241 0
2154 -2153 0
2154 -241 0
-2155 2154 242 0
2155 -2154 0
2155 -242 0
-2156 2155 243 0
2156 -2155 0
2156 -243 0
-2157 2156 244 0
2157 -2156 0
2157 -244 0
-2158 2157 245 0
2158 -2157 0
2158 -245 0
-2159 2158 246 0
2159 -2158 0
2159 -246 0
-2160 2159 247 0
2160 -2159 0
2160 -247 0
-2161 2160 248 0
2161 -2160 0
2161 -248 0
-2162 2161 249 0
2162 -2161 0
2162 -249 0
-2163 2162 250 0
2163 -2162 0
2163 -250 0
-2164 2163 251 0
2164 -2163 0
2164 -251 0
-2165 2164 252 0
2165 -2164 0
2165 -252 0
-2166 2165 253 0
2166 -2165 0
2166 -253 0
-2167 2166 254 0
2167 -2166 0
2167 -254 0
-2168 2167 255 0
2168 -2167 0
2168 -255 0
-2169 2168 320 0
2169 -2168 0
2169 -320 0
-2170 2169 321 0
2170 -2169 0
2170 -321 0
-2171 2170 322 0
2171 -2170 0
2171 -322 0
-2172 2171 323 0
2172 -2171 0
2172 -323 0
-2173 2172 324 0
2173 -2172 0
2173 -324 0
-2174 2173 325 0
2174 -2173 0
2174 -325 0
-2175 2174 326 0
2175 -2174 0
2175 -326 0
-2176 2175 327 0
2176 -2175 0
2176 -327 0
-2177 2176 328 0
2177 -2176 0
2177 -328 0
-2178 2177 329 0
2178 -2177 0
2178 -329 0
-2179 2178 330 0
2179 -2178 0
2179 -330 0
-2180 2179 331 0
2180 -2179 0
2180 -331 0
-2181 2180 332 0
2181 -2180 0
2181 -332 0
-2182 2181 333 0
2182 -2181 0
2182 -333 0
-2183 2182 334 0
2183 -2182 0
2183 -334 0
-2184 2183 335 0
2184 -2183 0
2184 -335 0
-2185 2184 336 0
2185 -2184 0
2185 -336 0
-2186 2185 337 0
2186 -2185 0
2186 -337 0
-2187 2186 338 0
2187 -2186 0
2187 -338 0
-2188 2187 339 0
2188 -2187 0
2188 -339 0
-2189 2188 340 0
2189 -2188 0
2189 -340 0
-2190 2189 341 0
2190 -2189 0
2190 -341 0
-2191 2190 342 0
2191 -2190 0
2191 -342 0
-2192 2191 343 0
2192 -2191 0
2192 -343 0
-2193 2192 344 0
2193 -2192 0
2193 -344 0
-2194 2193 345 0
2194 -2193 0
2194 -345 0
-2195 2194 346 0
2195 -2194 0
2195 -346 0
-2196 2195 347 0
2196 -2195 0
2196 -347 0
-2197 2196 348 0
2197 -2196 0
2197 -348 0
-2198 2197 349 0
2198 -2197 0
2198 -349 0
-2199 2198 350 0
2199 -2198 0
2199 -350 0
-2200 2199 351 0
2200 -2199 0
2200 -351 0
-2201 2200 352 0
2201 -2200 0
2201 -352 0
-2202 2201 353 0
2202 -2201 0
2202 -353 0
-2203 2202 354 0
2203 -2202 0
2203 -354 0
-2204 2203 355 0
2204 -2203 0
2204 -355 0
-2205 2204 356 0
2205 -2204 0
2205 -356 0
-2206 2205 357 0
2206 -2205 0
2206 -357 0
-2207 2206 358 0
2207 -2206 0
2207 -358 0
-2208 2207 359 0
2208 -2207 0
2208 -359 0
-2209 2208 360 0
2209 -2208 0
2209 -360 0
-2210 2209 361 0
2210 -2209 0
2210 -361 0
-2211 2210 362 0
2211 -2210 0
2211 -362 0
-2212 2211 363 0
2212 -2211 0
2212 -363 0
-2213 2212 364 0
2213 -2212 0
2213 -364 0
-2214 2213 365 0
2214 -2213 0
2214 -365 0
-2215 2214 366 0
2215 -2214 0
2215 -366 0
-2216 2215 367 0
2216 -2215 0
2216 -367 0
-2217 2216 368 0
2217 -2216 0
2217 -368 0
-2218 2217 369 0
2218 -2217 0
2218 -369 0
-2219 2218 370 0
2219 -2218 0
2219 -370 0
-2220 2219 371 0
2220 -2219 0
2220 -371 0
-2221 2220 372 0
2221 -2220 0
2221 -372 0
-2222 2221 373 0
2222 -2221 0
2222 -373 0
-2223 2222 374 0
2223 -2222 0
2223 -374 0
-2224 2223 375 0
2224 -2223 0
2224 -375 0
-2225 2224 376 0
2225 -2224 0
2225 -376 0
-2226 2225 377 0
2226 -2225 0
2226 -377 0
-2227 2226 378 0
2227 -2226 0
2227 -378 0
-2228 2227 379 0
2228 -2227 0
2228 -379 0
-2229 2228 380 0
2229 -2228 0
2229 -380 0
-2230 2229 381 0
2230 -2229 0
2230 -381 0
-2231 2230 382 0
2231 -2230 0
2231 -382 0
-2232 2231 383 0
2232 -2231 0
2232 -383 0
-2233 2232 448 0
2233 -2232 0
2233 -448 0
-2234 2233 449 0
2234 -2233 0
2234 -449 0
-2235 2234 450 0
2235 -2234 0
2235 -450 0
-2236 2235 451 0
2236 -2235 0
2236 -451 0
-2237 2236 452 0
2237 -2236 0
2237 -452 0
-2238 2237 453 0
2238 -2237 0
2238 -453 0
-2239 2238 454 0
2239 -2238 0
2239 -454 0
-2240 2239 455 0
2240 -2239 0
2240 -455 0
-2241 2240 456 0
2241 -2240 0
2241 -456 0
-2242 2241 457 0
2242 -2241 0
2242 -457 0
-2243 2242 458 0
2243 -2242 0
2243 -458 0
-2244 2243 459 0
2244 -2243 0
2244 -459 0
-2245 2244 460 0
2245 -2244 0
2245 -460 0
-2246 2245 461 0
2246 -2245 0
2246 -461 0
-2247 2246 462 0
2247 -2246 0
2247 -462 0
-2248 2247 463 0
2248 -2247 0
2248 -463 0
-2249 2248 464 0
2249 -2248 0
2249 -464 0
-2250 2249 465 0
2250 -2249 0
2250 -465 0
-2251 2250 466 0
2251 -2250 0
2251 -466 0
-2252 2251 467 0
2252 -2251 0
2252 -467 0
-2253 2252 468 0
2253 -2252 0
2253 -468 0
-2254 2253 469 0
2254 -2253 0
2254 -469 0
-2255 2254 470 0
2255 -2254 0
2255 -470 0
-2256 2255 471 0
2256 -2255 0
2256 -471 0
-2257 2256 472 0
2257 -2256 0
2257 -472 0
-2258 2257 473 0
2258 -2257 0
2258 -473 0
-2259 2258 474 0
2259 -2258 0
2259 -474 0
-2260 2259 475 0
2260 -2259 0
2260 -475 0
-2261 2260 476 0
2261 -2260 0
2261 -476 0
-2262 2261 477 0
2262 -2261 0
2262 -477 0
-2263 2262 478 0
2263 -2262 0
2263 -478 0
-2264 2263 479 0
2264 -2263 0
2264 -479 0
-2265 2264 480 0
2265 -2264 0
2265 -480 0
-2266 2265 481 0
2266 -2265 0
2266 -481 0
-2267 2266 482 0
2267 -2266 0
2267 -482 0
-2268 2267 483 0
2268 -2267 0
2268 -483 0
-2269 2268 484 0
2269 -2268 0
2269 -484 0
-2270 2269 485 0
2270 -2269 0
2270 -485 0
-2271 2270 486 0
2271 -2270 0
2271 -486 0
-2272 2271 487 0
2272 -2271 0
2272 -487 0
-2273 2272 488 0
2273 -2272 0
2273 -488 0
-2274 2273 489 0
2274 -2273 0
2274 -489 0
-2275 2274 490 0
2275 -2274 0
2275 -490 0
-2276 2275 491 0
2276 -2275 0
2276 -491 0
-2277 2276 492 0
2277 -2276 0
2277 -492 0
-2278 2277 493 0
2278 -2277 0
2278 -493 0
-2279 2278 494 0
2279 -2278 0
2279 -494 0
-2280 2279 495 0
2280 -2279 0
2280 -495 0
-2281 2280 496 0
2281 -2280 0
2281 -496 0
-2282 2281 497 0
2282 -2281 0
2282 -497 0
-2283 2282 498 0
2283 -2282 0
2283 -498 0
-2284 2283 499 0
2284 -2283 0
2284 -499 0
-2285 2284 500 0
2285 -2284 0
2285 -500 0
-2286 2285 501 0
2286 -2285 0
2286 -501 0
-2287 2286 502 0
2287 -2286 0
2287 -502 0
-2288 2287 503 0
2288 -2287 0
2288 -503 0
-2289 2288 504 0
2289 -2288 0
2289 -504 0
-2290 2289 505 0
2290 -2289 0
2290 -505 0
-2291 2290 506 0
2291 -2290 0
2291 -506 0
-2292 2291 507 0
2292 -2291 0
2292 -507 0
-2293 2292 508 0
2293 -2292 0
2293 -508 0
-2294 2293 509 0
2294 -2293 0
2294 -509 0
-2295 2294 510 0
2295 -2294 0
2295 -510 0
2295 511 0
-64 -65 0
-2042 -66 0
-2043 -67 0
-2044 -68 0
-2045 -69 0
-2046 -70 0
-2047 -71 0
-2048 -72 0
-2049 -73 0
-2050 -74 0
-2051 -75 0
-2052 -76 0
-2053 -77 0
-2054 -78 0
-2055 -79 0
-2056 -80 0
-2057 -81 0
-2058 -82 0
-2059 -83 0
-2060 -84 0
-2061 -85 0
-2062 -86 0
-2063 -87 0
-2064 -88 0
-2065 -89 0
-2066 -90 0
-2067 -91 0
-2068 -92 0
-2069 -93 0
-2070 -94 0
-2071 -95 0
-2072 -96 0
-2073 -97 0
-2074 -98 0
-2075 -99 0
-2076 -100 0
-2077 -101 0
-2078 -102 0
-2079 -103 0
-2080 -104 0
-2081 -105 0
-2082 -106 0
-2083 -107 0
-2084 -108 0
-2085 -109 0
-2086 -110 0
-2087 -111 0
-2088 -112 0
-2089 -113 0
-2090 -114 0
-2091 -115 0
-2092 -116 0
-2093 -117 0
-2094 -118 0
-2095 -119 0
-2096 -120 0
-2097 -121 0
-2098 -122 0
-2099 -123 0
-2100 -124 0
-2101 -125 0
-2102 -126 0
-2103 -127 0
-2104 -192 0
-2105 -193 0
-2106 -194 0
-2107 -195 0
-2108 -196 0
-2109 -197 0
-2110 -198 0
-2111 -199 0
-2112 -200 0
-2113 -201 0
-2114 -202 0
-2115 -203 0
-2116 -204 0
-2117 -205 0
-2118 -206 0
-2119 -207 0
-2120 -208 0
-2121 -209 0
-2122 -210 0
-2123 -211 0
-2124 -212 0
-2125 -213 0
-2126 -214 0
-2127 -215 0
-2128 -216 0
-2129 -217 0
-2130 -218 0
-2131 -219 0
-2132 -220 0
-2133 -221 0
-2134 -222 0
-2135 -223 0
-2136 -224 0
-2137 -225 0
-2138 -226 0
-2139 -227 0
-2140 -228 0
-2141 -229 0
-2142 -230 0
-2143 -231 0
-2144 -232 0
-2145 -233 0
-2146 -234 0
-2147 -235 0
-2148 -236 0
-2149 -237 0
-2150 -238 0
-2151 -239 0
-2152 -240 0
-2153 -241 0
-2154 -242 0
-2155 -243 0
-2156 -244 0
-2157 -245 0
-2158 -246 0
-2159 -247 0
-2160 -248 0
-2161 -249 0
-2162 -250 0
-2163 -251 0
-2164 -252 0
-2165 -253 0
-2166 -254 0
-2167 -255 0
-2168 -320 0
-2169 -321 0
-2170 -322 0
-2171 -323 0
-2172 -324 0
-2173 -325 0
-2174 -326 0
-2175 -327 0
-2176 -328 0
-2177 -329 0
-2178 -330 0
-2179 -331 0
-2180 -332 0
-2181 -333 0
-2182 -334 0
-2183 -335 0
-2184 -336 0
-2185 -337 0
-2186 -338 0
-2187 -339 0
-2188 -340 0
-2189 -341 0
-2190 -342 0
-2191 -343 0
-2192 -344 0
-2193 -345 0
-2194 -346 0
-2195 -347 0
-2196 -348 0
-2197 -349 0
-2198 -350 0
-2199 -351 0
-2200 -352 0
-2201 -353 0
-2202 -354 0
-2203 -355 0
-2204 -356 0
-2205 -357 0
-2206 -358 0
-2207 -359 0
-2208 -360 0
-2209 -361 0
-2210 -362 0
-2211 -363 0
-2212 -364 0
-2213 -365 0
-2214 -366 0
-2215 -367 0
-2216 -368 0
-2217 -369 0
-2218 -370 0
-2219 -371 0
-2220 -372 0
-2221 -373 0
-2222 -374 0
-2223 -375 0
-2224 -376 0
-2225 -377 0
-2226 -378 0
-2227 -379 0
-2228 -380 0
-2229 -381 0
-2230 -382 0
-2231 -383 0
-2232 -448 0
-2233 -449 0
-2234 -450 0
-2235 -451 0
-2236 -452 0
-2237 -453 0
-2238 -454 0
-2239 -455 0
-2240 -456 0
-2241 -457 0
-2242 -458 0
-2243 -459 0
-2244 -460 0
-2245 -461 0
-2246 -462 0
-2247 -463 0
-2248 -464 0
-2249 -465 0
-2250 -466 0
-2251 -467 0
-2252 -468 0
-2253 -469 0
-2254 -470 0
-2255 -471 0
-2256 -472 0
-2257 -473 0
-2258 -474 0
-2259 -475 0
-2260 -476 0
-2261 -477 0
-2262 -478 0
-2263 -479 0
-2264 -480 0
-2265 -481 0
-2266 -482 0
-2267 -483 0
-2268 -484 0
-2269 -485 0
-2270 -486 0
-2271 -487 0
-2272 -488 0
-2273 -489 0
-2274 -490 0
-2275 -491 0
-2276 -492 0
-2277 -493 0
-2278 -494 0
-2279 -495 0
-2280 -496 0
-2281 -497 0
-2282 -498 0
-2283 -499 0
-2284 -500 0
-2285 -501 0
-2286 -502 0
-2287 -503 0
-2288 -504 0
-2289 -505 0
-2290 -506 0
-2291 -507 0
-2292 -508 0
-2293 -509 0
-2294 -510 0
-2295 -511 0
2296 0
-2297 128 129 0
2297 -128 0
2297 -129 0
-2298 2297 130 0
2298 -2297 0
2298 -130 0
-2299 2298 131 0
2299 -2298 0
2299 -131 0
-2300 2299 132 0
2300 -2299 0
2300 -132 0
-2301 2300 133 0
2301 -2300 0
2301 -133 0
-2302 2301 134 0
2302 -2301 0
2302 -134 0
-2303 2302 135 0
2303 -2302 0
2303 -135 0
-2304 2303 136 0
2304 -2303 0
2304 -136 0
-2305 2304 137 0
2305 -2304 0
2305 -137 0
-2306 2305 138 0
2306 -2305 0
2306 -138 0
-2307 2306 139 0
2307 -2306 0
2307 -139 0
-2308 2307 140 0
2308 -2307 0
2308 -140 0
-2309 2308 141 0
2309 -2308 0
2309 -141 0
-2310 2309 142 0
2310 -2309 0
2310 -142 0
-2311 2310 143 0
2311 -2310 0
2311 -143 0
-2312 2311 144 0
2312 -2311 0
2312 -144 0
-2313 2312 145 0
2313 -2312 0
2313 -145 0
-2314 2313 146 0
2314 -2313 0
2314 -146 0
-2315 2314 147 0
2315 -2314 0
2315 -147 0
-2316 2315 148 0
2316 -2315 0
2316 -148 0
-2317 2316 149 0
2317 -2316 0
2317 -149 0
-2318 2317 150 0
2318 -2317 0
2318 -150 0
-2319 2318 151 0
2319 -2318 0
2319 -151 0
-2320 2319 152 0
2320 -2319 0
2320 -152 0
-2321 2320 153 0
2321 -2320 0
2321 -153 0
-2322 2321 154 0
2322 -2321 0
2322 -154 0
-2323 2322 155 0
2323 -2322 0
2323 -155 0
-2324 2323 156 0
2324 -2323 0
2324 -156 0
-2325 2324 157 0
2325 -2324 0
2325 -157 0
-2326 2325 158 0
2326 -2325 0
2326 -158 0
-2327 2326 159 0
2327 -2326 0
2327 -159 0
-2328 2327 160 0
2328 -2327 0
2328 -160 0
-2329 2328 161 0
2329 -2328 0
2329 -161 0
-2330 2329 162 0
2330 -2329 0
2330 -162 0
-2331 2330 163 0
2331 -2330 0
2331 -163 0
-2332 2331 164 0
2332 -2331 0
2332 -164 0
-2333 2332 165 0
2333 -2332 0
2333 -165 0
-2334 2333 166 0
2334 -2333 0
2334 -166 0
-2335 2334 167 0
2335 -2334 0
2335 -167 0
-2336 2335 168 0
2336 -2335 0
2336 -168 0
-2337 2336 169 0
2337 -2336 0
2337 -169 0
-2338 2337 170 0
2338 -2337 0
2338 -170 0
-2339 2338 171 0
2339 -2338 0
2339 -171 0
-2340 2339 172 0
2340 -2339 0
2340 -172 0
-2341 2340 173 0
2341 -2340 0
2341 -173 0
-2342 2341 174 0
2342 -2341 0
2342 -174 0
-2343 2342 175 0
2343 -2342 0
2343 -175 0
-2344 2343 176 0
2344 -2343 0
2344 -176 0
-2345 2344 177 0
2345 -2344 0
2345 -177 0
-2346 2345 178 0
2346 -2345 0
2346 -178 0
-2347 2346 179 0
2347 -2346 0
2347 -179 0
-2348 2347 180 0
2348 -2347 0
2348 -180 0
-2349 2348 181 0
2349 -2348 0
2349 -181 0
-2350 2349 182 0
2350 -2349 0
2350 -182 0
-2351 2350 183 0
2351 -2350 0
2351 -183 0
-2352 2351 184 0
2352 -2351 0
2352 -184 0
-2353 2352 185 0
2353 -2352 0
2353 -185 0
-2354 2353 186 0
2354 -2353 0
2354 -186 0
-2355 2354 187 0
2355 -2354 0
2355 -187 0
-2356 2355 188 0
2356 -2355 0
2356 -188 0
-2357 2356 189 0
2357 -2356 0
2357 -189 0
-2358 2357 190 0
2358 -2357 0
2358 -190 0
-2359 2358 191 0
2359 -2358 0
2359 -191 0
-2360 2359 192 0
2360 -2359 0
2360 -192 0
-2361 2360 193 0
2361 -2360 0
2361 -193 0
-2362 2361 194 0
2362 -2361 0
2362 -194 0
-2363 2362 195 0
2363 -2362 0
2363 -195 0
-2364 2363 196 0
2364 -2363 0
2364 -196 0
-2365 2364 197 0
2365 -2364 0
2365 -197 0
-2366 2365 198 0
2366 -2365 0
2366 -198 0
-2367 2366 199 0
2367 -2366 0
2367 -199 0
-2368 2367 200 0
2368 -2367 0
2368 -200 0
-2369 2368 201 0
2369 -2368 0
2369 -201 0
-2370 2369 202 0
2370 -2369 0
2370 -202 0
-2371 2370 203 0
2371 -2370 0
2371 -203 0
-2372 2371 204 0
2372 -2371 0
2372 -204 0
-2373 2372 205 0
2373 -2372 0
2373 -205 0
-2374 2373 206 0
2374 -2373 0
2374 -206 0
-2375 2374 207 0
2375 -2374 0
2375 -207 0
-2376 2375 208 0
2376 -2375 0
2376 -208 0
-2377 2376 209 0
2377 -2376 0
2377 -209 0
-2378 2377 210 0
2378 -2377 0
2378 -210 0
-2379 2378 211 0
2379 -2378 0
2379 -211 0
-2380 2379 212 0
2380 -2379 0
2380 -212 0
-2381 2380 213 0
2381 -2380 0
2381 -213 0
-2382 2381 214 0
2382 -2381 0
2382 -214 0
-2383 2382 215 0
2383 -2382 0
2383 -215 0
-2384 2383 216 0
2384 -2383 0
2384 -216 0
-2385 2384 217 0
2385 -2384 0
2385 -217 0
-2386 2385 218 0
2386 -2385 0
2386 -218 0
-2387 2386 219 0
2387 -2386 0
2387 -219 0
-2388 2387 220 0
2388 -2387 0
2388 -220 0
-2389 2388 221 0
2389 -2388 0
2389 -221 0
-2390 2389 222 0
2390 -2389 0
2390 -222 0
-2391 2390 223 0
2391 -2390 0
2391 -223 0
-2392 2391 224 0
2392 -2391 0
2392 -224 0
-2393 2392 225 0
2393 -2392 0
2393 -225 0
-2394 2393 226 0
2394 -2393 0
2394 -226 0
-2395 2394 227 0
2395 -2394 0
2395 -227 0
-2396 2395 228 0
2396 -2395 0
2396 -228 0
-2397 2396 229 0
2397 -2396 0
2397 -229 0
-2398 2397 230 0
2398 -2397 0
2398 -230 0
-2399 2398 231 0
2399 -2398 0
2399 -231 0
-2400 2399 232 0
2400 -2399 0
2400 -232 0
-2401 2400 233 0
2401 -2400 0
2401 -233 0
-2402 2401 234 0
2402 -2401 0
2402 -234 0
-2403 2402 235 0
2403 -2402 0
2403 -235 0
-2404 2403 236 0
2404 -2403 0
2404 -236 0
-2405 2404 237 0
2405 -2404 0
2405 -237 0
-2406 2405 238 0
2406 -2405 0
2406 -238 0
-2407 2406 239 0
2407 -2406 0
2407 -239 0
-2408 2407 240 0
2408 -2407 0
2408 -240 0
-2409 2408 241 0
2409 -2408 0
2409 -241 0
-2410 2409 242 0
2410 -2409 0
2410 -242 0
-2411 2410 243 0
2411 -2410 0
2411 -243 0
-2412 2411 244 0
2412 -2411 0
2412 -244 0
-2413 2412 245 0
2413 -2412 0
2413 -245 0
-2414 2413 246 0
2414 -2413 0
2414 -246 0
-2415 2414 247 0
2415 -2414 0
2415 -247 0
-2416 2415 248 0
2416 -2415 0
2416 -248 0
-2417 2416 249 0
2417 -2416 0
2417 -249 0
-2418 2417 250 0
2418 -2417 0
2418 -250 0
-2419 2418 251 0
2419 -2418 0
2419 -251 0
-2420 2419 252 0
2420 -2419 0
2420 -252 0
-2421 2420 253 0
2421 -2420 0
2421 -253 0
-2422 2421 254 0
2422 -2421 0
2422 -254 0
-2423 2422 255 0
2423 -2422 0
2423 -255 0
-2424 2423 384 0
2424 -2423 0
2424 -384 0
-2425 2424 385 0
2425 -2424 0
2425 -385 0
-2426 2425 386 0
2426 -2425 0
2426 -386 0
-2427 2426 387 0
2427 -2426 0
2427 -387 0
-2428 2427 388 0
2428 -2427 0
2428 -388 0
-2429 2428 389 0
2429 -2428 0
2429 -389 0
-2430 2429 390 0
2430 -2429 0
2430 -390 0
-2431 2430 391 0
2431 -2430 0
2431 -391 0
-2432 2431 392 0
2432 -2431 0
2432 -392 0
-2433 2432 393 0
2433 -2432 0
2433 -393 0
-2434 2433 394 0
2434 -2433 0
2434 -394 0
-2435 2434 395 0
2435 -2434 0
2435 -395 0
-2436 2435 396 0
2436 -2435 0
2436 -396 0
-2437 2436 397 0
2437 -2436 0
2437 -397 0
-2438 2437 398 0
2438 -2437 0
2438 -398 0
-2439 2438 399 0
2439 -2438 0
2439 -399 0
-2440 2439 400 0
2440 -2439 0
2440 -400 0
-2441 2440 401 0
2441 -2440 0
2441 -401 0
-2442 2441 402 0
2442 -2441 0
2442 -402 0
-2443 2442 403 0
2443 -2442 0
2443 -403 0
-2444 2443 404 0
2444 -2443 0
2444 -404 0
-2445 2444 405 0
2445 -2444 0
2445 -405 0
-2446 2445 406 0
2446 -2445 0
2446 -406 0
-2447 2446 407 0
2447 -2446 0
2447 -407 0
-2448 2447 408 0
2448 -2447 0
2448 -408 0
-2449 2448 409 0
2449 -2448 0
2449 -409 0
-2450 2449 410 0
2450 -2449 0
2450 -410 0
-2451 2450 411 0
2451 -2450 0
2451 -411 0
-2452 2451 412 0
2452 -2451 0
2452 -412 0
-2453 2452 413 0
2453 -2452 0
2453 -413 0
-2454 2453 414 0
2454 -2453 0
2454 -414 0
-2455 2454 415 0
2455 -2454 0
2455 -415 0
-2456 2455 416 0
2456 -2455 0
2456 -416 0
-2457 2456 417 0
2457 -2456 0
2457 -417 0
-2458 2457 418 0
2458 -2457 0
2458 -418 0
-2459 2458 419 0
2459 -2458 0
2459 -419 0
-2460 2459 420 0
2460 -2459 0
2460 -420 0
-2461 2460 421 0
2461 -2460 0
2461 -421 0
-2462 2461 422 0
2462 -2461 0
2462 -422 0
-2463 2462 423 0
2463 -2462 0
2463 -423 0
-2464 2463 424 0
2464 -2463 0
2464 -424 0
-2465 2464 425 0
2465 -2464 0
2465 -425 0
-2466 2465 426 0
2466 -2465 0
2466 -426 0
-2467 2466 427 0
2467 -2466 0
2467 -427 0
-2468 2467 428 0
2468 -2467 0
2468 -428 0
-2469 2468 429 0
2469 -2468 0
2469 -429 0
-2470 2469 430 0
2470 -2469 0
2470 -430 0
-2471 2470 431 0
2471 -2470 0
2471 -431 0
-2472 2471 432 0
2472 -2471 0
2472 -432 0
-2473 2472 433 0
2473 -2472 0
2473 -433 0
-2474 2473 434 0
2474 -2473 0
2474 -434 0
-2475 2474 435 0
2475 -2474 0
2475 -435 0
-2476 2475 436 0
2476 -2475 0
2476 -436 0
-2477 2476 437 0
2477 -2476 0
2477 -437 0
-2478 2477 438 0
2478 -2477 0
2478 -438 0
-2479 2478 439 0
2479 -2478 0
2479 -439 0
-2480 2479 440 0
2480 -2479 0
2480 -440 0
-2481 2480 441 0
2481 -2480 0
2481 -441 0
-2482 2481 442 0
2482 -2481 0
2482 -442 0
-2483 2482 443 0
2483 -2482 0
2483 -443 0
-2484 2483 444 0
2484 -2483 0
2484 -444 0
-2485 2484 445 0
2485 -2484 0
2485 -445 0
-2486 2485 446 0
2486 -2485 0
2486 -446 0
-2487 2486 447 0
2487 -2486 0
2487 -447 0
-2488 2487 448 0
2488 -2487 0
2488 -448 0
-2489 2488 449 0
2489 -2488 0
2489 -449 0
-2490 2489 450 0
2490 -2489 0
2490 -450 0
-2491 2490 451 0
2491 -2490 0
2491 -451 0
-2492 2491 452 0
2492 -2491 0
2492 -452 0
-2493 2492 453 0
2493 -2492 0
2493 -453 0
-2494 2493 454 0
2494 -2493 0
2494 -454 0
-2495 2494 455 0
2495 -2494 0
2495 -455 0
-2496 2495 456 0
2496 -2495 0
2496 -456 0
-2497 2496 457 0
2497 -2496 0
2497 -457 0
-2498 2497 458 0
2498 -2497 0
2498 -458 0
-2499 2498 459 0
2499 -2498 0
2499 -459 0
-2500 2499 460 0
2500 -2499 0
2500 -460 0
-2501 2500 461 0
2501 -2500 0
2501 -461 0
-2502 2501 462 0
2502 -2501 0
2502 -462 0
-2503 2502 463 0
2503 -2502 0
2503 -463 0
-2504 2503 464 0
2504 -2503 0
2504 -464 0
-2505 2504 465 0
2505 -2504 0
2505 -465 0
-2506 2505 466 0
2506 -2505 0
2506 -466 0
-2507 2506 467 0
2507 -2506 0
2507 -467 0
-2508 2507 468 0
2508 -2507 0
2508 -468 0
-2509 2508 469 0
2509 -2508 0
2509 -469 0
-2510 2509 470 0
2510 -2509 0
2510 -470 0
-2511 2510 471 0
2511 -2510 0
2511 -471 0
-2512 2511 472 0
2512 -2511 0
2512 -472 0
-2513 2512 473 0
2513 -2512 0
2513 -473 0
-2514 2513 474 0
2514 -2513 0
2514 -474 0
-2515 2514 475 0
2515 -2514 0
2515 -475 0
-2516 2515 476 0
2516 -2515 0
2516 -476 0
-2517 2516 477 0
2517 -2516 0
2517 -477 0
-2518 2517 478 0
2518 -2517 0
2518 -478 0
-2519 2518 479 0
2519 -2518 0
2519 -479 0
-2520 2519 480 0
2520 -2519 0
2520 -480 0
-2521 2520 481 0
2521 -2520 0
2521 -481 0
-2522 2521 482 0
2522 -2521 0
2522 -482 0
-2523 2522 483 0
2523 -2522 0
2523 -483 0
-2524 2523 484 0
2524 -2523 0
2524 -484 0
-2525 2524 485 0
2525 -2524 0
2525 -485 0
-2526 2525 486 0
2526 -2525 0
2526 -486 0
-2527 2526 487 0
2527 -2526 0
2527 -487 0
-2528 2527 488 0
2528 -2527 0
2528 -488 0
-2529 2528 489 0
2529 -2528 0
2529 -489 0
-2530 2529 490 0
2530 -2529 0
2530 -490 0
-2531 2530 491 0
2531 -2530 0
2531 -491 0
-2532 2531 492 0
2532 -2531 0
2532 -492 0
-2533 2532 493 0
2533 -2532 0
2533 -493 0
-2534 2533 494 0
2534 -2533 0
2534 -494 0
-2535 2534 495 0
2535 -2534 0
2535 -495 0
-2536 2535 496 0
2536 -2535 0
2536 -496 0
-2537 2536 497 0
2537 -2536 0
2537 -497 0
-2538 2537 498 0
2538 -2537 0
2538 -498 0
-2539 2538 499 0
2539 -2538 0
2539 -499 0
-2540 2539 500 0
2540 -2539 0
2540 -500 0
-2541 2540 501 0
2541 -2540 0
2541 -501 0
-2542 2541 502 0
2542 -2541 0
2542 -502 0
-2543 2542 503 0
2543 -2542 0
2543 -503 0
-2544 2543 504 0
2544 -2543 0
2544 -504 0
-2545 2544 505 0
2545 -2544 0
2545 -505 0
-2546 2545 506 0
2546 -2545 0
2546 -506 0
-2547 2546 507 0
2547 -2546 0
2547 -507 0
-2548 2547 508 0
2548 -2547 0
2548 -508 0
-2549 2548 509 0
2549 -2548 0
2549 -509 0
-2550 2549 510 0
2550 -2549 0
2550 -510 0
2550 511 0
-128 -129 0
-2297 -130 0
-2298 -131 0
-2299 -132 0
-2300 -133 0
-2301 -134 0
-2302 -135 0
-2303 -136 0
-2304 -137 0
-2305 -138 0
-2306 -139 0
-2307 -140 0
-2308 -141 0
-2309 -142 0
-2310 -143 0
-2311 -144 0
-2312 -145 0
-2313 -146 0
-2314 -147 0
-2315 -148 0
-2316 -149 0
-2317 -150 0
-2318 -151 0
-2319 -152 0
-2320 -153 0
-2321 -154 0
-2322 -155 0
-2323 -156 0
-2324 -157 0
-2325 -158 0
-2326 -159 0
-2327 -160 0
-2328 -161 0
-2329 -162 0
-2330 -163 0
-2331 -164 0
-2332 -165 0
-2333 -166 0
-2334 -167 0
-2335 -168 0
-2336 -169 0
-2337 -170 0
-2338 -171 0
-2339 -172 0
-2340 -173 0
-2341 -174 0
-2342 -175 0
-2343 -176 0
-2344 -177 0
-2345 -178 0
-2346 -179 0
-2347 -180 0
-2348 -181 0
-2349 -182 0
-2350 -183 0
-2351 -184 0
-2352 -185 0
-2353 -186 0
-2354 -187 0
-2355 -188 0
-2356 -189 0
-2357 -190 0
-2358 -191 0
-2359 -192 0
-2360 -193 0
-2361 -194 0
-2362 -195 0
-2363 -196 0
-2364 -197 0
-2365 -198 0
-2366 -199 0
-2367 -200 0
-2368 -201 0
-2369 -202 0
-2370 -203 0
-2371 -204 0
-2372 -205 0
-2373 -206 0
-2374 -207 0
-2375 -208 0
-2376 -209 0
-2377 -210 0
-2378 -211 0
-2379 -212 0
-2380 -213 0
-2381 -214 0
-2382 -215 0
-2383 -216 0
-2384 -217 0
-2385 -218 0
-2386 -219 0
-2387 -220 0
-2388 -221 0
-2389 -222 0
-2390 -223 0
-2391 -224 0
-2392 -225 0
-2393 -226 0
-2394 -227 0
-2395 -228 0
-2396 -229 0
-2397 -230 0
-2398 -231 0
-2399 -232 0
-2400 -233 0
-2401 -234 0
-2402 -235 0
-2403 -236 0
-2404 -237 0
-2405 -238 0
-2406 -239 0
-2407 -240 0
-2408 -241 0
-2409 -242 0
-2410 -243 0
-2411 -244 0
-2412 -245 0
-2413 -246 0
-2414 -247 0
-2415 -248 0
-2416 -249 0
-2417 -250 0
-2418 -251 0
-2419 -252 0
-2420 -253 0
-2421 -254 0
-2422 -255 0
-2423 -384 0
-2424 -385 0
-2425 -386 0
-2426 -387 0
-2427 -388 0
-2428 -389 0
-2429 -390 0
-2430 -391 0
-2431 -392 0
-2432 -393 0
-2433 -394 0
-2434 -395 0
-2435 -396 0
-2436 -397 0
-2437 -398 0
-2438 -399 0
-2439 -400 0
-2440 -401 0
-2441 -402 0
-2442 -403 0
-2443 -404 0
-2444 -405 0
-2445 -406 0
-2446 -407 0
-2447 -408 0
-2448 -409 0
-2449 -410 0
-2450 -411 0
-2451 -412 0
-2452 -413 0
-2453 -414 0
-2454 -415 0
-2455 -416 0
-2456 -417 0
-2457 -418 0
-2458 -419 0
-2459 -420 0
-2460 -421 0
-2461 -422 0
-2462 -423 0
-2463 -424 0
-2464 -425 0
-2465 -426 0
-2466 -427 0
-2467 -428 0
-2468 -429 0
-2469 -430 0
-2470 -431 0
-2471 -432 0
-2472 -433 0
-2473 -434 0
-2474 -435 0
-2475 -436 0
-2476 -437 0
-2477 -438 0
-2478 -439 0
-2479 -440 0
-2480 -441 0
-2481 -442 0
-2482 -443 0
-2483 -444 0
-2484 -445 0
-2485 -446 0
-2486 -447 0
-2487 -448 0
-2488 -449 0
-2489 -450 0
-2490 -451 0
-2491 -452 0
-2492 -453 0
-2493 -454 0
-2494 -455 0
-2495 -456 0
-2496 -457 0
-2497 -458 0
-2498 -459 0
-2499 -460 0
-2500 -461 0
-2501 -462 0
-2502 -463 0
-2503 -464 0
-2504 -465 0
-2505 -466 0
-2506 -467 0
-2507 -468 0
-2508 -469 0
-2509 -470 0
-2510 -471 0
-2511 -472 0
-2512 -473 0
-2513 -474 0
-2514 -475 0
-2515 -476 0
-2516 -477 0
-2517 -478 0
-2518 -479 0
-2519 -480 0
-2520 -481 0
-2521 -482 0
-2522 -483 0
-2523 -484 0
-2524 -485 0
-2525 -486 0
-2526 -487 0
-2527 -488 0
-2528 -489 0
-2529 -490 0
-2530 -491 0
-2531 -492 0
-2532 -493 0
-2533 -494 0
-2534 -495 0
-2535 -496 0
-2536 -497 0
-2537 -498 0
-2538 -499 0
-2539 -500 0
-2540 -501 0
-2541 -502 0
-2542 -503 0
-2543 -504 0
-2544 -505 0
-2545 -506 0
-2546 -507 0
-2547 -508 0
-2548 -509 0
-2549 -510 0
-2550 -511 0
2551 0
-2552 256 257 0
2552 -256 0
2552 -257 0
-2553 2552 258 0
2553 -2552 0
2553 -258 0
-2554 2553 259 0
2554 -2553 0
2554 -259 0
-2555 2554 260 0
2555 -2554 0
2555 -260 0
-2556 2555 261 0
2556 -2555 0
2556 -261 0
-2557 2556 262 0
2557 -2556 0
2557 -262 0
-2558 2557 263 0
2558 -2557 0
2558 -263 0
-2559 2558 264 0
2559 -2558 0
2559 -264 0
-2560 2559 265 0
2560 -2559 0
2560 -265 0
-2561 2560 266 0
2561 -2560 0
2561 -266 0
-2562 2561 267 0
2562 -2561 0
2562 -267 0
-2563 2562 268 0
2563 -2562 0
2563 -268 0
-2564 2563 269 0
2564 -2563 0
2564 -269 0
-2565 2564 270 0
2565 -2564 0
2565 -270 0
-2566 2565 271 0
2566 -2565 0
2566 -271 0
-2567 2566 272 0
2567 -2566 0
2567 -272 0
-2568 2567 273 0
2568 -2567 0
2568 -273 0
-2569 2568 274 0
2569 -2568 0
2569 -274 0
-2570 2569 275 0
2570 -2569 0
2570 -275 0
-2571 2570 276 0
2571 -2570 0
2571 -276 0
-2572 2571 277 0
2572 -2571 0
2572 -277 0
-2573 2572 278 0
2573 -2572 0
2573 -278 0
-2574 2573 279 0
2574 -2573 0
2574 -279 0
-2575 2574 280 0
2575 -2574 0
2575 -280 0
-2576 2575 281 0
2576 -2575 0
2576 -281 0
-2577 2576 282 0
2577 -2576 0
2577 -282 0
-2578 2577 283 0
2578 -2577 0
2578 -283 0
-2579 2578 284 0
2579 -2578 0
2579 -284 0
-2580 2579 285 0
2580 -2579 0
2580 -285 0
-2581 2580 286 0
2581 -2580 0
2581 -286 0
-2582 2581 287 0
2582 -2581 0
2582 -287 0
-2583 2582 288 0
2583 -2582 0
2583 -288 0
-2584 2583 289 0
2584 -2583 0
2584 -289 0
-2585 2584 290 0
2585 -2584 0
2585 -290 0
-2586 2585 291 0
2586 -2585 0
2586 -291 0
-2587 2586 292 0
2587 -2586 0
2587 -292 0
-2588 2587 293 0
2588 -2587 0
2588 -293 0
-2589 2588 294 0
2589 -2588 0
2589 -294 0
-2590 2589 295 0
2590 -2589 0
2590 -295 0
-2591 2590 296 0
2591 -2590 0
2591 -296 0
-2592 2591 297 0
2592 -2591 0
2592 -297 0
-2593 2592 298 0
2593 -2592 0
2593 -298 0
-2594 2593 299 0
2594 -2593 0
2594 -299 0
-2595 2594 300 0
2595 -2594 0
2595 -300 0
-2596 2595 301 0
2596 -2595 0
2596 -301 0
-2597 2596 302 0
2597 -2596 0
2597 -302 0
-2598 2597 303 0
2598 -2597 0
2598 -303 0
-2599 2598 304 0
2599 -2598 0
2599 -304 0
-2600 2599 305 0
2600 -2599 0
2600 -305 0
-2601 2600 306 0
2601 -2600 0
2601 -306 0
-2602 2601 307 0
2602 -2601 0
2602 -307 0
-2603 2602 308 0
2603 -2602 0
2603 -308 0
-2604 2603 309 0
2604 -2603 0
2604 -309 0
-2605 2604 310 0
2605 -2604 0
2605 -310 0
-2606 2605 311 0
2606 -2605 0
2606 -311 0
-2607 2606 312 0
2607 -2606 0
2607 -312 0
-2608 2607 313 0
2608 -2607 0
2608 -313 0
-2609 2608 314 0
2609 -2608 0
2609 -314 0
-2610 2609 315 0
2610 -2609 0
2610 -315 0
-2611 2610 316 0
2611 -2610 0
2611 -316 0
-2612 2611 317 0
2612 -2611 0
2612 -317 0
-2613 2612 318 0
2613 -2612 0
2613 -318 0
-2614 2613 319 0
2614 -2613 0
2614 -319 0
-2615 2614 320 0
2615 -2614 0
2615 -320 0
-2616 2615 321 0
2616 -2615 0
2616 -321 0
-2617 2616 322 0
2617 -2616 0
2617 -322 0
-2618 2617 323 0
2618 -2617 0
2618 -323 0
-2619 2618 324 0
2619 -2618 0
2619 -324 0
-2620 2619 325 0
2620 -2619 0
2620 -325 0
-2621 2620 326 0
2621 -2620 0
2621 -326 0
-2622 2621 327 0
2622 -2621 0
2622 -327 0
-2623 2622 328 0
2623 -2622 0
2623 -328 0
-2624 2623 329 0
2624 -2623 0
2624 -329 0
-2625 2624 330 0
2625 -2624 0
2625 -330 0
-2626 2625 331 0
2626 -2625 0
2626 -331 0
-2627 2626 332 0
2627 -2626 0
2627 -332 0
-2628 2627 333 0
2628 -2627 0
2628 -333 0
-2629 2628 334 0
2629 -2628 0
2629 -334 0
-2630 2629 335 0
2630 -2629 0
2630 -335 0
-2631 2630 336 0
2631 -2630 0
2631 -336 0
-2632 2631 337 0
2632 -2631 0
2632 -337 0
-2633 2632 338 0
2633 -2632 0
2633 -338 0
-2634 2633 339 0
2634 -2633 0
2634 -339 0
-2635 2634 340 0
2635 -2634 0
2635 -340 0
-2636 2635 341 0
2636 -2635 0
2636 -341 0
-2637 2636 342 0
2637 -2636 0
2637 -342 0
-2638 2637 343 0
2638 -2637 0
2638 -343 0
-2639 2638 344 0
2639 -2638 0
2639 -344 0
-2640 2639 345 0
2640 -2639 0
2640 -345 0
-2641 2640 346 0
2641 -2640 0
2641 -346 0
-2642 2641 347 0
2642 -2641 0
2642 -347 0
-2643 2642 348 0
2643 -2642 0
2643 -348 0
-2644 2643 349 0
2644 -2643 0
2644 -349 0
-2645 2644 350 0
2645 -2644 0
2645 -350 0
-2646 2645 351 0
2646 -2645 0
2646 -351 0
-2647 2646 352 0
2647 -2646 0
2647 -352 0
-2648 2647 353 0
2648 -2647 0
2648 -353 0
-2649 2648 354 0
2649 -2648 0
2649 -354 0
-2650 2649 355 0
2650 -2649 0
2650 -355 0
-2651 2650 356 0
2651 -2650 0
2651 -356 0
-2652 2651 357 0
2652 -2651 0
2652 -357 0
-2653 2652 358 0
2653 -2652 0
2653 -358 0
-2654 2653 359 0
2654 -2653 0
2654 -359 0
-2655 2654 360 0
2655 -2654 0
2655 -360 0
-2656 2655 361 0
2656 -2655 0
2656 -361 0
-2657 2656 362 0
2657 -2656 0
2657 -362 0
-2658 2657 363 0
2658 -2657 0
2658 -363 0
-2659 2658 364 0
2659 -2658 0
2659 -364 0
-2660 2659 365 0
2660 -2659 0
2660 -365 0
-2661 2660 366 0
2661 -2660 0
2661 -366 0
-2662 2661 367 0
2662 -2661 0
2662 -367 0
-2663 2662 368 0
2663 -2662 0
2663 -368 0
-2664 2663 369 0
2664 -2663 0
2664 -369 0
-2665 2664 370 0
2665 -2664 0
2665 -370 0
-2666 2665 371 0
2666 -2665 0
2666 -371 0
-2667 2666 372 0
2667 -2666 0
2667 -372 0
-2668 2667 373 0
2668 -2667 0
2668 -373 0
-2669 2668 374 0
2669 -2668 0
2669 -374 0
-2670 2669 375 0
2670 -2669 0
2670 -375 0
-2671 2670 376 0
2671 -2670 0
2671 -376 0
-2672 2671 377 0
2672 -2671 0
2672 -377 0
-2673 2672 378 0
2673 -2672 0
2673 -378 0
-2674 2673 379 0
2674 -2673 0
2674 -379 0
-2675 2674 380 0
2675 -2674 0
2675 -380 0
-2676 2675 381 0
2676 -2675 0
2676 -381 0
-2677 2676 382 0
2677 -2676 0
2677 -382 0
-2678 2677 383 0
2678 -2677 0
2678 -383 0
-2679 2678 384 0
2679 -2678 0
2679 -384 0
-2680 2679 385 0
2680 -2679 0
2680 -385 0
-2681 2680 386 0
2681 -2680 0
2681 -386 0
-2682 2681 387 0
2682 -2681 0
2682 -387 0
-2683 2682 388 0
2683 -2682 0
2683 -388 0
-2684 2683 389 0
2684 -2683 0
2684 -389 0
-2685 2684 390 0
2685 -2684 0
2685 -390 0
-2686 2685 391 0
2686 -2685 0
2686 -391 0
-2687 2686 392 0
2687 -2686 0
2687 -392 0
-2688 2687 393 0
2688 -2687 0
2688 -393 0
-2689 2688 394 0
2689 -2688 0
2689 -394 0
-2690 2689 395 0
2690 -2689 0
2690 -395 0
-2691 2690 396 0
2691 -2690 0
2691 -396 0
-2692 2691 397 0
2692 -2691 0
2692 -397 0
-2693 2692 398 0
2693 -2692 0
2693 -398 0
-2694 2693 399 0
2694 -2693 0
2694 -399 0
-2695 2694 400 0
2695 -2694 0
2695 -400 0
-2696 2695 401 0
2696 -2695 0
2696 -401 0
-2697 2696 402 0
2697 -2696 0
2697 -402 0
-2698 2697 403 0
2698 -2697 0
2698 -403 0
-2699 2698 404 0
2699 -2698 0
2699 -404 0
-2700 2699 405 0
2700 -2699 0
2700 -405 0
-2701 2700 406 0
2701 -2700 0
2701 -406 0
-2702 2701 407 0
2702 -2701 0
2702 -407 0
-2703 2702 408 0
2703 -2702 0
2703 -408 0
-2704 2703 409 0
2704 -2703 0
2704 -409 0
-2705 2704 410 0
2705 -2704 0
2705 -410 0
-2706 2705 411 0
2706 -2705 0
2706 -411 0
-2707 2706 412 0
2707 -2706 0
2707 -412 0
-2708 2707 413 0
2708 -2707 0
2708 -413 0
-2709 2708 414 0
2709 -2708 0
2709 -414 0
-2710 2709 415 0
2710 -2709 0
2710 -415 0
-2711 2710 416 0
2711 -2710 0
2711 -416 0
-2712 2711 417 0
2712 -2711 0
2712 -417 0
-2713 2712 418 0
2713 -2712 0
2713 -418 0
-2714 2713 419 0
2714 -2713 0
2714 -419 0
-2715 2714 420 0
2715 -2714 0
2715 -420 0
-2716 2715 421 0
2716 -2715 0
2716 -421 0
-2717 2716 422 0
2717 -2716 0
2717 -422 0
-2718 2717 423 0
2718 -2717 0
2718 -423 0
-2719 2718 424 0
2719 -2718 0
2719 -424 0
-2720 2719 425 0
2720 -2719 0
2720 -425 0
-2721 2720 426 0
2721 -2720 0
2721 -426 0
-2722 2721 427 0
2722 -2721 0
2722 -427 0
-2723 2722 428 0
2723 -2722 0
2723 -428 0
-2724 2723 429 0
2724 -2723 0
2724 -429 0
-2725 2724 430 0
2725 -2724 0
2725 -430 0
-2726 2725 431 0
2726 -2725 0
2726 -431 0
-2727 2726 432 0
2727 -2726 0
2727 -432 0
-2728 2727 433 0
2728 -2727 0
2728 -433 0
-2729 2728 434 0
2729 -2728 0
2729 -434 0
-2730 2729 435 0
2730 -2729 0
2730 -435 0
-2731 2730 436 0
2731 -2730 0
2731 -436 0
-2732 2731 437 0
2732 -2731 0
2732 -437 0
-2733 2732 438 0
2733 -2732 0
2733 -438 0
-2734 2733 439 0
2734 -2733 0
2734 -439 0
-2735 2734 440 0
2735 -2734 0
2735 -440 0
-2736 2735 441 0
2736 -2735 0
2736 -441 0
-2737 2736 442 0
2737 -2736 0
2737 -442 0
-2738 2737 443 0
2738 -2737 0
2738 -443 0
-2739 2738 444 0
2739 -2738 0
2739 -444 0
-2740 2739 445 0
2740 -2739 0
2740 -445 0
-2741 2740 446 0
2741 -2740 0
2741 -446 0
-2742 2741 447 0
2742 -2741 0
2742 -447 0
-2743 2742 448 0
2743 -2742 0
2743 -448 0
-2744 2743 449 0
2744 -2743 0
2744 -449 0
-2745 2744 450 0
2745 -2744 0
2745 -450 0
-2746 2745 451 0
2746 -2745 0
2746 -451 0
-2747 2746 452 0
2747 -2746 0
2747 -452 0
-2748 2747 453 0
2748 -2747 0
2748 -453 0
-2749 2748 454 0
2749 -2748 0
2749 -454 0
-2750 2749 455 0
2750 -2749 0
2750 -455 0
-2751 2750 456 0
2751 -2750 0
2751 -456 0
-2752 2751 457 0
2752 -2751 0
2752 -457 0
-2753 2752 458 0
2753 -2752 0
2753 -458 0
-2754 2753 459 0
2754 -2753 0
2754 -459 0
-2755 2754 460 0
2755 -2754 0
2755 -460 0
-2756 2755 461 0
2756 -2755 0
2756 -461 0
-2757 2756 462 0
2757 -2756 0
2757 -462 0
-2758 2757 463 0
2758 -2757 0
2758 -463 0
-2759 2758 464 0
2759 -2758 0
2759 -464 0
-2760 2759 465 0
2760 -2759 0
2760 -465 0
-2761 2760 466 0
2761 -2760 0
2761 -466 0
-2762 2761 467 0
2762 -2761 0
2762 -467 0
-2763 2762 468 0
2763 -2762 0
2763 -468 0
-2764 2763 469 0
2764 -2763 0
2764 -469 0
-2765 2764 470 0
2765 -2764 0
2765 -470 0
-2766 2765 471 0
2766 -2765 0
2766 -471 0
-2767 2766 472 0
2767 -2766 0
2767 -472 0
-2768 2767 473 0
2768 -2767 0
2768 -473 0
-2769 2768 474 0
2769 -2768 0
2769 -474 0
-2770 2769 475 0
2770 -2769 0
2770 -475 0
-2771 2770 476 0
2771 -2770 0
2771 -476 0
-2772 2771 477 0
2772 -2771 0
2772 -477 0
-2773 2772 478 0
2773 -2772 0
2773 -478 0
-2774 2773 479 0
2774 -2773 0
2774 -479 0
-2775 2774 480 0
2775 -2774 0
2775 -480 0
-2776 2775 481 0
2776 -2775 0
2776 -481 0
-2777 2776 482 0
2777 -2776 0
2777 -482 0
-2778 2777 483 0
2778 -2777 0
2778 -483 0
-2779 2778 484 0
2779 -2778 0
2779 -484 0
-2780 2779 485 0
2780 -2779 0
2780 -485 0
-2781 2780 486 0
2781 -2780 0
2781 -486 0
-2782 2781 487 0
2782 -2781 0
2782 -487 0
-2783 2782 488 0
2783 -2782 0
2783 -488 0
-2784 2783 489 0
2784 -2783 0
2784 -489 0
-2785 2784 490 0
2785 -2784 0
2785 -490 0
-2786 2785 491 0
2786 -2785 0
2786 -491 0
-2787 2786 492 0
2787 -2786 0
2787 -492 0
-2788 2787 493 0
2788 -2787 0
2788 -493 0
-2789 2788 494 0
2789 -2788 0
2789 -494 0
-2790 2789 495 0
2790 -2789 0
2790 -495 0
-2791 2790 496 0
2791 -2790 0
2791 -496 0
-2792 2791 497 0
2792 -2791 0
2792 -497 0
-2793 2792 498 0
2793 -2792 0
2793 -498 0
-2794 2793 499 0
2794 -2793 0
2794 -499 0
-2795 2794 500 0
2795 -2794 0
2795 -500 0
-2796 2795 501 0
2796 -2795 0
2796 -501 0
-2797 2796 502 0
2797 -2796 0
2797 -502 0
-2798 2797 503 0
2798 -2797 0
2798 -503 0
-2799 2798 504 0
2799 -2798 0
2799 -504 0
-2800 2799 505 0
2800 -2799 0
2800 -505 0
-2801 2800 506 0
2801 -2800 0
2801 -506 0
-2802 2801 507 0
2802 -2801 0
2802 -507 0
-2803 2802 508 0
2803 -2802 0
2803 -508 0
-2804 2803 509 0
2804 -2803 0
2804 -509 0
-2805 2804 510 0
2805 -2804 0
2805 -510 0
2805 511 0
-256 -257 0
-2552 -258 0
-2553 -259 0
-2554 -260 0
-2555 -261 0
-2556 -262 0
-2557 -263 0
-2558 -264 0
-2559 -265 0
-2560 -266 0
-2561 -267 0
-2562 -268 0
-2563 -269 0
-2564 -270 0
-2565 -271 0
-2566 -272 0
-2567 -273 0
-2568 -274 0
-2569 -275 0
-2570 -276 0
-2571 -277 0
-2572 -278 0
-2573 -279 0
-2574 -280 0
-2575 -281 0
-2576 -282 0
-2577 -283 0
-2578 -284 0
-2579 -285 0
-2580 -286 0
-2581 -287 0
-2582 -288 0
-2583 -289 0
-2584 -290 0
-2585 -291 0
-2586 -292 0
-2587 -293 0
-2588 -294 0
-2589 -295 0
-2590 -296 0
-2591 -297 0
-2592 -298 0
-2593 -299 0
-2594 -300 0
-2595 -301 0
-2596 -302 0
-2597 -303 0
-2598 -304 0
-2599 -305 0
-2600 -306 0
-2601 -307 0
-2602 -308 0
-2603 -309 0
-2604 -310 0
-2605 -311 0
-2606 -312 0
-2607 -313 0
-2608 -314 0
-2609 -315 0
-2610 -316 0
-2611 -317 0
-2612 -318 0
-2613 -319 0
-2614 -320 0
-2615 -321 0
-2616 -322 0
-2617 -323 0
-2618 -324 0
-2619 -325 0
-2620 -326 0
-2621 -327 0
-2622 -328 0
-2623 -329 0
-2624 -330 0
-2625 -331 0
-2626 -332 0
-2627 -333 0
-2628 -334 0
-2629 -335 0
-2630 -336 0
-2631 -337 0
-2632 -338 0
-2633 -339 0
-2634 -340 0
-2635 -341 0
-2636 -342 0
-2637 -343 0
-2638 -344 0
-2639 -345 0
-2640 -346 0
-2641 -347 0
-2642 -348 0
-2643 -349 0
-2644 -350 0
-2645 -351 0
-2646 -352 0
-2647 -353 0
-2648 -354 0
-2649 -355 0
-2650 -356 0
-2651 -357 0
-2652 -358 0
-2653 -359 0
-2654 -360 0
-2655 -361 0
-2656 -362 0
-2657 -363 0
-2658 -364 0
-2659 -365 0
-2660 -366 0
-2661 -367 0
-2662 -368 0
-2663 -369 0
-2664 -370 0
-2665 -371 0
-2666 -372 0
-2667 -373 0
-2668 -374 0
-2669 -375 0
-2670 -376 0
-2671 -377 0
-2672 -378 0
-2673 -379 0
-2674 -380 0
-2675 -381 0
-2676 -382 0
-2677 -383 0
-2678 -384 0
-2679 -385 0
-2680 -386 0
-2681 -387 0
-2682 -388 0
-2683 -389 0
-2684 -390 0
-2685 -391 0
-2686 -392 0
-2687 -393 0
-2688 -394 0
-2689 -395 0
-2690 -396 0
-2691 -397 0
-2692 -398 0
-2693 -399 0
-2694 -400 0
-2695 -401 0
-2696 -402 0
-2697 -403 0
-2698 -404 0
-2699 -405 0
-2700 -406 0
-2701 -407 0
-2702 -408 0
-2703 -409 0
-2704 -410 0
-2705 -411 0
-2706 -412 0
-2707 -413 0
-2708 -414 0
-2709 -415 0
-2710 -416 0
-2711 -417 0
-2712 -418 0
-2713 -419 0
-2714 -420 0
-2715 -421 0
-2716 -422 0
-2717 -423 0
-2718 -424 0
-2719 -425 0
-2720 -426 0
-2721 -427 0
-2722 -428 0
-2723 -429 0
-2724 -430 0
-2725 -431 0
-2726 -432 0
-2727 -433 0
-2728 -434 0
-2729 -435 0
-2730 -436 0
-2731 -437 0
-2732 -438 0
-2733 -439 0
-2734 -440 0
-2735 -441 0
-2736 -442 0
-2737 -443 0
-2738 -444 0
-2739 -445 0
-2740 -446 0
-2741 -447 0
-2742 -448 0
-2743 -449 0
-2744 -450 0
-2745 -451 0
-2746 -452 0
-2747 -453 0
-2748 -454 0
-2749 -455 0
-2750 -456 0
-2751 -457 0
-2752 -458 0
-2753 -459 0
-2754 -460 0
-2755 -461 0
-2756 -462 0
-2757 -463 0
-2758 -464 0
-2759 -465 0
-2760 -466 0
-2761 -467 0
-2762 -468 0
-2763 -469 0
-2764 -470 0
-2765 -471 0
-2766 -472 0
-2767 -473 0
-2768 -474 0
-2769 -475 0
-2770 -476 0
-2771 -477 0
-2772 -478 0
-2773 -479 0
-2774 -480 0
-2775 -481 0
-2776 -482 0
-2777 -483 0
-2778 -484 0
-2779 -485 0
-2780 -486 0
-2781 -487 0
-2782 -488 0
-2783 -489 0
-2784 -490 0
-2785 -491 0
-2786 -492 0
-2787 -493 0
-2788 -494 0
-2789 -495 0
-2790 -496 0
-2791 -497 0
-2792 -498 0
-2793 -499 0
-2794 -500 0
-2795 -501 0
-2796 -502 0
-2797 -503 0
-2798 -504 0
-2799 -505 0
-2800 -506 0
-2801 -507 0
-2802 -508 0
-2803 -509 0
-2804 -510 0
-2805 -511 0
2806 0
